 # Version information for this restart file 
 # current date 2022-06-12 14:53:12.635
 # current working dir /home/woodrowwilson/Desktop/MtD/4_metadynamics-QMMM
 # Program compiled at                           Wed May 25 08:10:51 PM CDT 2022
 # Program compiled on                                                    pop-os
 # Program compiled for                                    PopOS-x86-64-gfortran
 # Source code revision number                                       git:d8d7100
 &GLOBAL
   PRINT_LEVEL  LOW
   PROJECT_NAME MD_QMMM
   RUN_TYPE  MD
 &END GLOBAL
 &MOTION
   &MD
     ENSEMBLE  NPT_I
     STEPS  1000
     TIMESTEP     4.9999999999999994E-01
     STEP_START_VAL  1000
     TIME_START_VAL     4.9999999999999636E+02
     ECONS_START_VAL    -8.7572535116363497E+01
     TEMPERATURE     2.9800000000000000E+02
     &BAROSTAT
       PRESSURE     1.0000000000000000E+00
       TIMECON     9.9999999999999986E+01
       &VELOCITY
             8.8515834047494628E-06
       &END VELOCITY
       &MASS
             2.4537124633693066E+08
       &END MASS
       &THERMOSTAT
         TYPE  CSVR
         &CSVR
           TIMECON     9.6755373060191392E+00
           &THERMOSTAT_ENERGY
                 4.8468802987015912E-02
           &END THERMOSTAT_ENERGY
           &RNG_INIT
Wiener process for Thermostat # 1        1 F T F  -1.3341410006363901E+00        2541814264.0        3941849849.0        1471721613.0        2955828914.0        3003340017.0        2968415032.0             12345.0             12345.0             12345.0             12345.0             12345.0             12345.0             12345.0             12345.0             12345.0             12345.0             12345.0             12345.0
           &END RNG_INIT
         &END CSVR
       &END THERMOSTAT
     &END BAROSTAT
     &THERMOSTAT
       TYPE  CSVR
       REGION  GLOBAL
       &CSVR
         TIMECON     9.9999999999999986E+01
         &THERMOSTAT_ENERGY
              -2.9972889056007279E+00
         &END THERMOSTAT_ENERGY
         &RNG_INIT
Wiener process for Thermostat # 1        1 F T F   3.6934809257878964E-01        3571215856.0        3476194909.0        4124465758.0        3827339777.0         500743983.0        3796746179.0             12345.0             12345.0             12345.0             12345.0             12345.0             12345.0             12345.0             12345.0             12345.0             12345.0             12345.0             12345.0
         &END RNG_INIT
       &END CSVR
     &END THERMOSTAT
     &AVERAGES  T
       &RESTART_AVERAGES
         ITIMES_START  1
         AVECPU     8.6667428250277778E-01
         AVEHUGONIOT     0.0000000000000000E+00
         AVETEMP_BARO     6.5879606703720274E+03
         AVEPOT    -9.2307537650795666E+01
         AVEKIN     6.5825518140965045E+00
         AVETEMP     2.7332057612086874E+02
         AVEKIN_QM     3.3605186643099715E-02
         AVETEMP_QM     3.2156563575568367E+02
         AVEVOL     3.3940086946275173E+05
         AVECELL_A     6.9374475743333591E+01
         AVECELL_B     7.3842479405528621E+01
         AVECELL_C     6.6249543716228430E+01
         AVEALPHA     9.0000000000000000E+01
         AVEBETA     9.0000000000000000E+01
         AVEGAMMA     9.0000000000000000E+01
         AVE_ECONS    -7.0793790217158370E-01
         AVE_PRESS     5.1943670078963812E+01
         AVE_PXX    -1.6820631812795003E+02
       &END RESTART_AVERAGES
     &END AVERAGES
   &END MD
   &FREE_ENERGY
     &METADYN
       NT_HILLS  100
       MIN_DISP    -1.0000000000000000E+00
       OLD_HILL_NUMBER  0
       OLD_HILL_STEP  0
       WW     4.4999999999999999E-04
       DO_HILLS  F
       STEP_START_VAL  1000
       NHILLS_START_VAL  0
       &METAVAR
         SCALE     3.4999999999999998E-01
         COLVAR  1
       &END METAVAR
       &METAVAR
         SCALE     3.4999999999999998E-01
         COLVAR  2
       &END METAVAR
       &PRINT
         &COLVAR  SILENT
           COMMON_ITERATION_LEVELS  3
           &EACH
             MD  1
           &END EACH
         &END COLVAR
         &HILLS  SILENT
           COMMON_ITERATION_LEVELS  3
           &EACH
             MD  1
           &END EACH
         &END HILLS
       &END PRINT
     &END METADYN
   &END FREE_ENERGY
   &PRINT
     &TRAJECTORY  SILENT
       FORMAT  DCD
     &END TRAJECTORY
     &CELL  SILENT
       &EACH
         MD  100
       &END EACH
     &END CELL
     &RESTART  SILENT
       &EACH
         MD  2000
       &END EACH
     &END RESTART
     &RESTART_HISTORY  SILENT
       &EACH
         MD  5000
       &END EACH
     &END RESTART_HISTORY
   &END PRINT
 &END MOTION
 &FORCE_EVAL
   METHOD  QMMM
   STRESS_TENSOR  ANALYTICAL
   &DFT
     CHARGE  0
     &SCF
       MAX_SCF  50
       EPS_SCF     1.0000000000000001E-05
       SCF_GUESS  ATOMIC
       &OT  T
         MINIMIZER  DIIS
         PRECONDITIONER  FULL_SINGLE_INVERSE
       &END OT
       &OUTER_SCF  T
         EPS_SCF     1.0000000000000001E-05
         MAX_SCF  50
       &END OUTER_SCF
     &END SCF
     &QS
       METHOD  PM3
       &SE
         &COULOMB
           CUTOFF     1.0000000000000002E+01
         &END COULOMB
         &EXCHANGE
           CUTOFF     1.0000000000000002E+01
         &END EXCHANGE
       &END SE
     &END QS
   &END DFT
   &MM
     &FORCEFIELD
       PARMTYPE  AMBER
       PARM_FILE_NAME system.parm7
       &SPLINE
         RCUT_NB     1.0000000000000002E+01
         EMAX_SPLINE     1.0000000000000000E+08
       &END SPLINE
     &END FORCEFIELD
     &POISSON
       &EWALD
         EWALD_TYPE  SPME
         ALPHA     4.0000000000000008E-01
         GMAX  80
       &END EWALD
     &END POISSON
   &END MM
   &QMMM
     E_COUPL  COULOMB
     INITIAL_TRANSLATION_VECTOR    -1.0585451245166198E+00   -2.3251353967232546E-01   -1.7133296244043663E+00
     &QM_KIND N
       MM_INDEX  7 17
     &END QM_KIND
     &QM_KIND O
       MM_INDEX  6 16
     &END QM_KIND
     &QM_KIND C
       MM_INDEX  2 5 9 11 15 19
     &END QM_KIND
     &QM_KIND H
       MM_INDEX  1 3 4 8 10 12..14 18 20..22
     &END QM_KIND
     &CELL
       ABC     3.6608337400000011E+01    3.8966065999999998E+01    3.4959336600000007E+01
       ALPHA_BETA_GAMMA     9.0000000000000000E+01    9.0000000000000000E+01    9.0000000000000000E+01
     &END CELL
   &END QMMM
   &SUBSYS
     &CELL
       A     3.6942590868464229E+01    0.0000000000000000E+00    0.0000000000000000E+00
       B     0.0000000000000000E+00    3.9321846776673794E+01    0.0000000000000000E+00
       C     0.0000000000000000E+00    0.0000000000000000E+00    3.5278533819641012E+01
       MULTIPLE_UNIT_CELL  1 1 1
     &END CELL
     &COORD
HC2    1.9578859190220690E+01    1.8024676116698416E+01    1.5037829571591875E+01
CT1    1.9375804682290664E+01    1.7248907067389407E+01    1.5805584473914125E+01
HC2    2.0189992418364561E+01    1.6522423996667474E+01    1.5676717754226461E+01
HC2    1.8419962092818995E+01    1.6836020664286167E+01    1.5473785534843337E+01
C1    1.9215982620017726E+01    1.7828860945522905E+01    1.7186079471602461E+01
O    1.8880236759128330E+01    1.7100644793891998E+01    1.8152131637639584E+01
N    1.9280622357332096E+01    1.9177152444732723E+01    1.7508030606249939E+01
H    1.9721451045343226E+01    1.9721745566498175E+01    1.6813026093606442E+01
XC    1.9373693033982384E+01    1.9727024308269311E+01    1.8853069669728072E+01
H11    1.9123307169365376E+01    1.9039876529755219E+01    1.9613316350532578E+01
CT2    2.0767468256827886E+01    2.0298041492583074E+01    1.9122368527782744E+01
HC1    2.1428845964282054E+01    1.9481270726495257E+01    1.9385252310595817E+01
HC1    2.1142088382322445E+01    2.0809764963703660E+01    1.8204596108792487E+01
HC1    2.0822599395673763E+01    2.1013984277733503E+01    1.9921507028408129E+01
C2    1.8355627620411365E+01    2.0878530533408274E+01    1.8769654309247652E+01
O    1.8523166483933039E+01    2.2056907467856700E+01    1.8406537427647798E+01
N    1.7098888907927861E+01    2.0620169575447260E+01    1.9305021605565486E+01
H    1.6600658176299934E+01    1.9746585865194977E+01    1.9347119156234065E+01
CT3    1.5954853506969288E+01    2.1488029627362035E+01    1.8901474165500357E+01
H12    1.5886453412614811E+01    2.1724033913522046E+01    1.7826832328615993E+01
H12    1.5179491435717956E+01    2.0815970462380577E+01    1.9251561364238800E+01
H12    1.5836181583431321E+01    2.2443642003332524E+01    1.9427774747687273E+01
OW    1.8827437383045705E+01    3.6229438439782065E+01    4.0192199465797023E+00
HW    1.8611140323341640E+01    3.5281304483637008E+01    4.1285329282155745E+00
HW    1.8510322921510014E+01    3.6567057774349237E+01    4.8819210953483889E+00
OW    2.5592720830793418E+01    3.0116495113979681E+01    1.0568477220758698E+01
HW    2.6322543954681553E+01    2.9656559917303088E+01    1.0948265760421764E+01
HW    2.5019492756165633E+01    3.0373219759677639E+01    1.1269467808959869E+01
OW    3.1413393889806713E+01    7.4311836884641655E+00    2.3351135586455467E+01
HW    3.0941657243371814E+01    7.5628131342210105E+00    2.2522239759225847E+01
HW    3.2339184772961886E+01    7.3758182142501481E+00    2.3042183920056313E+01
OW    3.2460041115412910E+00    2.2849832341341102E+01    2.9693285189696784E+01
HW    2.4620157046214985E+00    2.2906943869350652E+01    2.9063236145959255E+01
HW    2.7499081432069432E+00    2.2346470782543282E+01    3.0392206198610573E+01
OW    3.1476598920504877E+01    2.9527009968549400E+01    2.4294470858492630E+01
HW    3.1337162887842361E+01    3.0452746328562338E+01    2.4134623450576274E+01
HW    3.0880669503557055E+01    2.9290448069224905E+01    2.4993411960659362E+01
OW    2.4702162883553076E+01    3.3992930832085158E+01    2.6474146983144852E+01
HW    2.5400203602306973E+01    3.3298728019637359E+01    2.6539313004061267E+01
HW    2.3950964819733258E+01    3.3461243400823591E+01    2.6847057315453135E+01
OW    2.9114025968948294E+01    2.1866290850069980E+01    3.3590420031443287E+01
HW    2.8537094490489920E+01    2.2657097738469503E+01    3.3694937458880950E+01
HW    2.8987898617690551E+01    2.1455841378040269E+01    3.4463009343126885E+01
OW    9.3774028371085620E+00    1.6714128726814312E+01    3.0907255544212838E+01
HW    9.0765498239524014E+00    1.7434764741900448E+01    3.0331836254832272E+01
HW    8.7138888177724851E+00    1.6749147681625299E+01    3.1618053608503097E+01
OW    6.5766680102923997E-02    2.4716430584267027E+01    3.0715955485428015E+01
HW    7.6579418374242203E-01    2.5109602120989095E+01    3.1267161584687639E+01
HW    5.2534109480350033E-01    2.4503951981786251E+01    2.9902434714884073E+01
OW    1.4217361347316724E+00    2.7607665591190212E+01    2.3090842440754614E+01
HW    1.2719332445456086E+00    2.8544527852226405E+01    2.3338527449941367E+01
HW    6.8256792049788462E-01    2.7193105204484603E+01    2.3586089119175142E+01
OW    3.2118262514550423E+01    4.9284100286879475E+00    1.1681330405238009E+01
HW    3.1301776696811849E+01    5.2986876900466173E+00    1.1978839163323949E+01
HW    3.2750110731932232E+01    5.0100413651489184E+00    1.2366240397298242E+01
OW    2.0695417688457223E+01    1.6921627473162239E+01    2.7737940017453596E+01
HW    2.1412767924305314E+01    1.6718268547031045E+01    2.8372693816142196E+01
HW    2.0278287296030047E+01    1.7674187901875751E+01    2.8211840565971684E+01
OW    2.6514851770674369E+01    3.5266481618692957E+01    6.0193274160172301E+00
HW    2.5687845564157005E+01    3.4713383030082930E+01    6.1773149917101184E+00
HW    2.6476233310384099E+01    3.5209829049960803E+01    5.0299153350700445E+00
OW    3.4486654914700274E+01    3.0450262840961368E+01    2.9427937992311364E+01
HW    3.4444384087474766E+01    3.1369570321397472E+01    2.9013123824690418E+01
HW    3.4361461145713115E+01    3.0788526610346306E+01    3.0358447343988434E+01
OW    3.2322812009533308E+01    1.5485201335969789E+01    1.2854863838689405E+00
HW    3.1433927404892227E+01    1.5139870736974515E+01    1.5492731631574905E+00
HW    3.2809332048671372E+01    1.5211294022222200E+01    2.1025655500325469E+00
OW    2.6221810346119589E+01    2.7793465902219761E+01    1.2876735842990426E+01
HW    2.5693918398140053E+01    2.7195524010791576E+01    1.2323709228664473E+01
HW    2.6216287714497490E+01    2.7340141188886868E+01    1.3727072764869655E+01
OW    2.7839574623892428E+01    3.5818088417985727E+01    3.2767731008695456E+01
HW    2.7277146159771036E+01    3.5792427707898938E+01    3.1949720618412584E+01
HW    2.8590643546227771E+01    3.5276433175091647E+01    3.2389652285872671E+01
OW    1.6392587640131882E+00    2.6477467835116304E+01    3.2146508694654635E+01
HW    2.5771427399289393E+00    2.6527168719386491E+01    3.2397494350830144E+01
HW    1.5059615313852626E+00    2.7364823668851695E+01    3.1766824535993376E+01
OW    2.3121409232106700E+01    2.4287787767120463E+01    2.5789244321142235E+01
HW    2.3634828651516557E+01    2.3680935100119076E+01    2.5210682728713881E+01
HW    2.2610814506358494E+01    2.3644507998117248E+01    2.6297375093033143E+01
OW    3.4729492241231604E+01    2.7949738805898303E+01    2.8687151617262170E+01
HW    3.4721279476434439E+01    2.8920606881919912E+01    2.8910948232698892E+01
HW    3.4118607806310969E+01    2.8020680731684891E+01    2.7903481139463999E+01
OW    2.6292502144285613E+01    3.3791634601680585E+01    2.2465599693981488E+01
HW    2.6639899558934204E+01    3.4542107385718623E+01    2.2951510463602460E+01
HW    2.6273906087708955E+01    3.3082753614467784E+01    2.3129694706059983E+01
OW    2.3222003314809211E+01    2.6533014555486705E+01    2.9878926299173720E+01
HW    2.3240076269368767E+01    2.7372577999593574E+01    2.9354833824938378E+01
HW    2.4204277322352556E+01    2.6417561307164320E+01    2.9970505227698172E+01
OW    3.8562882265947046E+01    2.3987265642479382E+01    9.8374616692747396E-01
HW    3.7775849079675247E+01    2.3856547325842076E+01    1.5421641704338211E+00
HW    3.8356219173442376E+01    2.3400105453724827E+01    2.3460990893719272E-01
OW    2.2290355925529866E+01    3.3286362864040015E+01    4.1235374794365773E+00
HW    2.2310703395387602E+01    3.2845729811855918E+01    3.2286257676990893E+00
HW    2.1488494195083874E+01    3.2785630481863969E+01    4.4537465268048120E+00
OW    2.4593652244685162E+00    2.5369223846986380E+01    2.8403131365371756E+01
HW    2.7920276110173656E+00    2.5470720598782638E+01    2.7486230893099371E+01
HW    1.6496371094928339E+00    2.5912236142271290E+01    2.8354492017389433E+01
OW    3.0953544150037033E+01    3.6012154547472491E+01    7.1982340261711384E+00
HW    3.0718905496618948E+01    3.5568686563345821E+01    6.3717426533944037E+00
HW    3.0193944587969657E+01    3.6600800182166005E+01    7.3271447124830296E+00
OW    2.8952961487850413E+01    3.1233354116422415E+01    2.6867550720391780E+01
HW    2.8614562607790418E+01    3.0369419301347630E+01    2.6499086154099029E+01
HW    2.8301367148556228E+01    3.1324829401333098E+01    2.7591942895549234E+01
OW    2.9268795303134663E+01    1.8175174327478189E+01    1.9439662211499215E+01
HW    3.0145652342238979E+01    1.7982416047681866E+01    1.9874733763590189E+01
HW    2.9258846270608405E+01    1.9145529265707140E+01    1.9651840143085064E+01
OW    2.3897647214929922E+01    1.0921122377874482E+01    4.6281982022905268E+00
HW    2.3665727770737789E+01    1.1860396443092997E+01    4.8216542984833106E+00
HW    2.3325034669299040E+01    1.0500741361777481E+01    5.3150360980972859E+00
OW    3.2654745992669163E+01    2.2156006864100977E+01    3.3050542303116622E+01
HW    3.2600741012019100E+01    2.1199314232218359E+01    3.2887677834911656E+01
HW    3.2988684885376948E+01    2.2482166772808572E+01    3.2204657467662997E+01
OW    3.0786080769213761E+01    2.6990438792890100E+01    3.6740413726110020E+01
HW    3.1595093635636083E+01    2.7076597108550246E+01    3.6192346327212299E+01
HW    3.1176748523629509E+01    2.7014085894765753E+01    3.7634858290724047E+01
OW    2.2114797547204216E+01    2.9344818044424205E+01    7.0992112321367848E+00
HW    2.2903943223494867E+01    2.8808427307883360E+01    7.3020802247924905E+00
HW    2.2119076937839381E+01    2.9935151127804392E+01    7.8801398922810408E+00
OW    2.2390686295014433E+01    1.6238717030033630E+01    1.1066060143690969E+01
HW    2.1735421654287887E+01    1.6685447985173184E+01    1.0513667047573529E+01
HW    2.2044399487998668E+01    1.5352431974190903E+01    1.1149188573660389E+01
OW    2.7709905405145545E+01    1.6307218738459671E+01    3.6450540202406074E+01
HW    2.6838789434824328E+01    1.5914700077578489E+01    3.6690405174601963E+01
HW    2.7404593374618781E+01    1.7240395394071932E+01    3.6356623947428375E+01
OW    2.9154737263858600E+01    1.6638597120045265E+01    3.2137095295257971E+01
HW    2.8900447022526794E+01    1.5845050046979685E+01    3.2619044420994172E+01
HW    2.9833206952304138E+01    1.7019642092932475E+01    3.2708477973948831E+01
OW    3.0769095583432659E+01    3.8927211815597758E+01    1.5241188340716537E+01
HW    2.9818701751739781E+01    3.8728859488127021E+01    1.5424058875989413E+01
HW    3.0775343583089438E+01    3.8802265350129233E+01    1.4275457052608415E+01
OW    2.1487812134641452E+01    2.1580477867241406E+01    3.5627562321389213E+01
HW    2.1484882555890646E+01    2.2213641123342153E+01    3.4883787750394447E+01
HW    2.0603770567345983E+01    2.1174149711389106E+01    3.5517392302121003E+01
OW    3.4611650364231075E+01    2.5868703069835217E+01    3.0534389442338984E+01
HW    3.5322172358894356E+01    2.5209540500799346E+01    3.0715268893255175E+01
HW    3.5007890131607219E+01    2.6338994255521431E+01    2.9783165359075635E+01
OW    2.1815209228820038E+01    7.0189061700974023E+00    3.4605369677615364E+01
HW    2.2167245068420424E+01    7.7295958591429743E+00    3.5123635235161224E+01
HW    2.1836576333288601E+01    6.2414611095504053E+00    3.5146111328016595E+01
OW    2.6256773944007534E+01    3.4009910519487690E+01    1.9663049200737412E+01
HW    2.6351328259517086E+01    3.3959588739719813E+01    2.0637691192959576E+01
HW    2.7177157781531985E+01    3.4188418558494710E+01    1.9409506018533630E+01
OW    1.9062101686239529E+01    2.5718431487244292E+01    5.9453117048495940E+00
HW    1.9814272520086419E+01    2.5516871279346397E+01    5.3538442271821269E+00
HW    1.8740720754545883E+01    2.6543876258647277E+01    5.5526478835939006E+00
OW    2.9599090251728214E+01    2.0408451900436969E+01    5.9867397338806261E-01
HW    2.9257507614678786E+01    2.0007243315602693E+01    1.4240281924510072E+00
HW    3.0217673398051225E+01    2.1060418212798577E+01    9.7775030625185455E-01
OW    3.5337928146840440E+01    1.9188626653071100E+01    2.7237590601743864E+01
HW    3.4654737092376763E+01    1.8759534903094156E+01    2.7813815694068271E+01
HW    3.4755030379475954E+01    1.9946955275030561E+01    2.6945270077643105E+01
OW    2.4846161733173034E+01    3.1384654496954781E+01    1.8960832902424780E+01
HW    2.5569585292167549E+01    3.0804341754118564E+01    1.9110151745786954E+01
HW    2.5095841435640359E+01    3.2254293569193351E+01    1.9231224722524910E+01
OW    1.8356036998991268E+01    2.3995516879008054E+01    2.4610016336748430E+01
HW    1.8433367246543739E+01    2.4731643945565786E+01    2.5226488418211282E+01
HW    1.9247884451636573E+01    2.3633708788084199E+01    2.4596816360026711E+01
OW    2.5616915138731560E+01    2.1571150595629508E+01    1.2365036214897041E+01
HW    2.4701515567979300E+01    2.1926165174196264E+01    1.2382786290259007E+01
HW    2.6061791980636222E+01    2.2287575432547939E+01    1.1878270312094115E+01
OW    1.3551061879878407E+01    3.1183443796481281E+01    2.6274300757806031E+01
HW    1.4086250263815673E+01    3.0715307539448567E+01    2.6932411438077558E+01
HW    1.2851324274714662E+01    3.1556750442353017E+01    2.6836169550430618E+01
OW   -4.3819951602245838E-01    3.6522095695572546E+01    2.1809489751251323E+01
HW   -1.6173960507860388E-01    3.6102497200786090E+01    2.2631172917830419E+01
HW    3.9914509998632958E-01    3.6808109723249075E+01    2.1418765587221003E+01
OW    2.7386829790101640E+01    3.6455857966026684E+01    1.7945108535645954E+01
HW    2.6643051966534451E+01    3.7070196117179641E+01    1.8138192899523283E+01
HW    2.6878144175069927E+01    3.5692249160355651E+01    1.7616746992779365E+01
OW    2.3904858189878002E+01    2.3930003888217637E+01    2.1888797809750766E+00
HW    2.4052432629371527E+01    2.4147432934035464E+01    1.2429601392318019E+00
HW    2.4845338132959807E+01    2.3973989115874257E+01    2.4892146497884773E+00
OW    2.6851902106226710E+01    1.6930158899412671E+01    1.9360139069612384E+01
HW    2.7585072324661201E+01    1.7529725872601851E+01    1.9244767396802519E+01
HW    2.7249772083033175E+01    1.6101479542130786E+01    1.9632375776206406E+01
OW    3.2926321393234723E+01    3.3619999478525166E+01    2.3580833222177787E+01
HW    3.1956811568717807E+01    3.3691519173511679E+01    2.3510728775152469E+01
HW    3.3063843195854147E+01    3.4091586748611483E+01    2.4431350465887046E+01
OW    2.7494729783864091E+01    2.5818548637547835E+01    2.7660878349029954E+01
HW    2.7815246731417069E+01    2.6326793717265623E+01    2.6888903985561562E+01
HW    2.7884482400518760E+01    2.4947370051114991E+01    2.7449096608243732E+01
OW    2.5332085136955506E+01    1.4988201221233572E+01    3.4089519323231823E+00
HW    2.4589705074987428E+01    1.4513218960202558E+01    3.8435533157780672E+00
HW    2.5920960280560770E+01    1.5076531137804198E+01    4.1965479890047499E+00
OW    1.8897862717687971E+01    1.5644011219758820E+01    1.8701485551623831E+00
HW    1.9154420046708516E+01    1.5961516263321919E+01    9.7214317980308873E-01
HW    1.9017955928427266E+01    1.4679449058419744E+01    1.7259653265076091E+00
OW    2.6131970075933911E+01    1.1224183979503309E+01    2.3943397772110846E+01
HW    2.6017252713182927E+01    1.0319765081107780E+01    2.4310920739495170E+01
HW    2.5876412824280699E+01    1.1037325118151333E+01    2.3012046750192777E+01
OW    7.3731655584653053E+00    2.9069881419496085E+01    2.3466656063247296E+01
HW    7.7210048895125700E+00    2.8709201387721794E+01    2.4305379113550995E+01
HW    6.4127081747182864E+00    2.8887795364895311E+01    2.3617789117502966E+01
OW    2.9957181535157346E+01    9.4045051366990116E+00    3.0845638472934944E+01
HW    2.9584125011911404E+01    8.5835927245253814E+00    3.1197868569269822E+01
HW    3.0560685493152643E+01    9.0594111453418780E+00    3.0161775790500656E+01
OW    2.5975384707853152E+01    1.9496558861005202E+01    3.3591813666478480E+01
HW    2.5026881531713787E+01    1.9726027830974306E+01    3.3702186874643758E+01
HW    2.5884696640380064E+01    1.8575112839112592E+01    3.3280404751896967E+01
OW    3.8192430894439009E+00    2.5562932858479506E+01    1.9137601138678100E+00
HW    3.1144167483350316E+00    2.4917094833033939E+01    1.6761891030248022E+00
HW    4.0306808256456819E+00    2.5891363527501198E+01    1.0106374825545668E+00
OW    3.2336201857779500E+01    1.9870083777907645E+01    8.4505127600031980E+00
HW    3.1998486106397554E+01    2.0662518856338536E+01    8.9016343694587796E+00
HW    3.2160032825371353E+01    2.0090999164209585E+01    7.5296950653072816E+00
OW    2.5291708352447500E+01    2.1872163701862313E+01    4.4870492451445125E+00
HW    2.4693343983879629E+01    2.1586125788917137E+01    3.7582451376812274E+00
HW    2.6129804898968100E+01    2.1517242962725216E+01    4.1779063652396662E+00
OW    3.3153827432808676E+01    3.8695217939033860E+01    8.4067144012370321E+00
HW    3.2394765820899714E+01    3.8539493724423082E+01    7.8263262116014776E+00
HW    3.3622690281901093E+01    3.9396020635857262E+01    7.8957027848224213E+00
OW    3.4976817445037447E+01    3.2703812913413948E+01    1.0258919991065472E+01
HW    3.4681148821885664E+01    3.3157271700090952E+01    9.4260923445234237E+00
HW    3.4676985226292430E+01    3.3422695345964080E+01    1.0879321981878530E+01
OW    2.8485816059629979E+01    2.4183980741922394E+01    1.2449573006192070E+00
HW    2.8326099076354996E+01    2.4455747687555895E+01    2.1901758619497174E+00
HW    2.9249038331128130E+01    2.4816907595842892E+01    1.1012318474172873E+00
OW    2.9071132743673203E+01    2.6898971908446246E+01    8.1820331035673330E+00
HW    2.9286503227802939E+01    2.7559617167029831E+01    7.5054215140649942E+00
HW    2.9426772642412931E+01    2.7310837951615451E+01    8.9811668036913996E+00
OW    2.3807073881743644E+01    2.3571600014599614E+01    5.9965257584733376E+00
HW    2.4158034465260059E+01    2.2920624467427388E+01    5.3419583304793816E+00
HW    2.4116538471261446E+01    2.3172718706154104E+01    6.8191753264621067E+00
OW    2.0309988039308681E+01    2.4398866170936426E+01    8.1531687784557896E+00
HW    2.0617683615189520E+01    2.3806214231952101E+01    7.4205637732053349E+00
HW    1.9738798957903729E+01    2.4985668342220340E+01    7.5681883000033245E+00
OW    2.9091693318268458E+01    2.0368345572796695E+01    3.1243051861011320E+01
HW    2.9194075665246647E+01    2.0814195766066181E+01    3.2112288205509280E+01
HW    2.8125152848567129E+01    2.0259396677418284E+01    3.1223275275606952E+01
OW    3.6172868147643008E+01    2.8102950306478906E+01    3.7228095075713235E+01
HW    3.6496746591773544E+01    2.7210233928723138E+01    3.7459905222427857E+01
HW    3.6951050744471395E+01    2.8622007240914837E+01    3.7545446777661510E+01
OW    3.7201257097728174E+01    3.4925432936932395E+01    8.5797187006303801E+00
HW    3.6439838647310047E+01    3.5523755145762436E+01    8.4406110762400317E+00
HW    3.7149783551668570E+01    3.4382452061668445E+01    7.7764768504576578E+00
OW    2.3766958323115177E+00    2.2697308413268285E+01    3.5330741051427990E+00
HW    2.3075802045553329E+00    2.1973131827841517E+01    2.8539044994965872E+00
HW    3.2534754090750018E+00    2.3050870521918394E+01    3.2407185318459351E+00
OW    3.5702915023850636E+01    2.3180540783351596E+01    1.3348641088627044E+01
HW    3.5526652531174584E+01    2.4099749343268893E+01    1.3067065093259334E+01
HW    3.4818003577060303E+01    2.2934067613185860E+01    1.3687610409220520E+01
OW    8.5847277511590647E+00    1.4398346770193557E+01    3.1733552751578976E+01
HW    9.0400448444682624E+00    1.5107543944499524E+01    3.1224204071009382E+01
HW    9.2697220344111084E+00    1.3718633597423898E+01    3.1757167853565370E+01
OW    2.5696421647892014E+00    4.9714660847353791E+00    3.5088748486992266E+01
HW    1.7163749922937066E+00    5.2663140709023413E+00    3.4714562322961612E+01
HW    2.3686744166747062E+00    4.0348772083665896E+00    3.5258461075640369E+01
OW    3.1812995591794994E+01    1.9519778431131343E+01    3.2052750970924549E+01
HW    3.1765522082857210E+01    1.9034698250556435E+01    3.2911396519459956E+01
HW    3.0922935427818935E+01    1.9265297777629964E+01    3.1710076681596970E+01
OW    3.6590366778415406E+00    1.6054473274134924E+01    4.5180508634830225E+00
HW    4.5423912647825802E+00    1.6465943095214122E+01    4.4408783605831408E+00
HW    3.2691770486086473E+00    1.6594030816188361E+01    5.2343026926579421E+00
OW    4.6857464959859291E-01    4.3976851558572028E+00    2.4620751921564552E+00
HW    1.2883112890419226E+00    4.2254037700691018E+00    2.9666419264634070E+00
HW    3.5659531084407586E-01    5.3512878412766094E+00    2.6860942487763042E+00
OW    2.5365483699030079E+01    3.5290424232405947E+01    1.4282386358020746E+01
HW    2.5231984196756301E+01    3.4354391080458811E+01    1.4576359903489736E+01
HW    2.6326513068495618E+01    3.5340840932901884E+01    1.4511230177962680E+01
OW    2.7525065438848973E+01    2.5798874989511308E+01    6.1300415924686185E+00
HW    2.8211495910446004E+01    2.6045702934311187E+01    6.7737841221142876E+00
HW    2.6750773933930034E+01    2.6249144745914744E+01    6.4967738352297619E+00
OW    1.4012309457012785E+01    1.7892082812584455E+01    2.8683042419064289E+01
HW    1.3729497727097288E+01    1.7379976348241282E+01    2.9478294619230336E+01
HW    1.4015322258292391E+01    1.8788507075305720E+01    2.9110236775449255E+01
OW    2.8963975670395250E+01    2.0932652999700835E+01    1.4095337445007113E+01
HW    2.9250691732860787E+01    2.0647803849898370E+01    1.4980641931168149E+01
HW    2.9348910802139148E+01    2.0247199488903185E+01    1.3536318009871852E+01
OW    3.0295652185044457E+01    1.9011248253913550E+01    2.7991864217954973E+01
HW    3.1134197074969467E+01    1.9353594636001823E+01    2.8278187360475087E+01
HW    2.9880377493710746E+01    1.8659914056519824E+01    2.8776530825827418E+01
OW    3.2179502290455346E+01    1.0721947635038394E+01    1.2445457553683555E+01
HW    3.1388614178119226E+01    1.0112950420784436E+01    1.2575022979593340E+01
HW    3.2110300835900773E+01    1.1121844210821042E+01    1.3357892172312386E+01
OW    2.9631270428793798E+01    1.9734992190975788E+01    1.0019232279043438E+01
HW    2.9408919136862700E+01    1.8870031248514803E+01    9.6813880098007825E+00
HW    2.8784875089078337E+01    2.0177698504089211E+01    1.0103348877250575E+01
OW    3.2035616023550396E+01    3.7080267200469926E+01    1.0756108844721973E+01
HW    3.2116015841658516E+01    3.7932406171506415E+01    1.1217647928515008E+01
HW    3.2171687321878970E+01    3.7319842061932356E+01    9.8392999571030693E+00
OW    1.0881829841632076E+01    1.9744480781585260E+01    5.0964861960105319E+00
HW    1.1024737262837922E+01    1.8793345054342627E+01    4.8320688751989174E+00
HW    9.9284403556023992E+00    1.9799811837824663E+01    4.9174497341104164E+00
OW    2.8280840926213887E+01    2.3699285964243526E+01    9.6130146671753192E+00
HW    2.8471578620128032E+01    2.4591549066307056E+01    9.9272596926242063E+00
HW    2.8474959257209566E+01    2.3155850923571414E+01    1.0392550575139030E+01
OW    2.8851480837401759E+01    3.3135589362299767E+00    3.8474310497665569E+00