 # Version information for this restart file 
 # current date 2022-06-16 11:04:40.443
 # current working dir /work/hpc/users/wnw36/MSU-DFT-Catalysis-School/5_NEB/2_Diels-Alder
 # Program compiled at                              Mon May 23 16:32:41 CDT 2022
 # Program compiled on                             Orion-devel-1.HPC.MsState.Edu
 # Program compiled for                                  Linux-x86-64-intel-hpc2
 # Source code revision number                                       git:d8d7100
 &GLOBAL
   PRINT_LEVEL  MEDIUM
   PROJECT_NAME Diels-Alder-r-0
   OUTPUT_FILE_NAME Diels-Alder-r-0.out
   RUN_TYPE  BAND
   WALLTIME 47:58:00
 &END GLOBAL
 &MOTION
   &BAND
     NPROC_REP  12
     BAND_TYPE  CI-NEB
     NUMBER_OF_REPLICA  10
     ROTATE_FRAMES  T
     ALIGN_FRAMES  T
     K_SPRING     5.0000000000000003E-02
     &CONVERGENCE_CONTROL
       MAX_DR     1.0000000000000000E-03
       MAX_FORCE     1.0000000000000000E-03
       RMS_DR     5.0000000000000001E-03
       RMS_FORCE     5.0000000000000001E-03
     &END CONVERGENCE_CONTROL
     &CI_NEB
       NSTEPS_IT  5
     &END CI_NEB
     &OPTIMIZE_BAND
       OPT_TYPE  DIIS
       OPTIMIZE_END_POINTS  F
       &DIIS
         MAX_STEPS  400
       &END DIIS
     &END OPTIMIZE_BAND
     &REPLICA
       &COORD
             7.3629150000000125E+00    6.8025800000000141E+00    6.1148800000000110E+00
             8.2334820097000154E+00    7.7879118505000093E+00    6.5113178957000137E+00
             7.7379631168000111E+00    8.4421429294000188E+00    7.5939733998000110E+00
             9.1891269845000210E+00    8.1471716695000218E+00    6.1280166441000068E+00
             9.3792030766000174E+00    6.0351017222000136E+00    8.6188423547000266E+00
             6.5584376089000092E+00    7.8514733810000106E+00    7.9308262290000116E+00
             6.2741561796000145E+00    6.8456748071000098E+00    7.0348359464000145E+00
             5.8161985998000079E+00    8.4192308110000198E+00    9.0794824339000133E+00
             8.3462195928000291E+00    6.0871051940000171E+00    9.4785677268000299E+00
             7.4955795001000078E+00    6.1224053217000165E+00    5.2717930157000072E+00
             5.3859254853000040E+00    6.2111438670000094E+00    7.0590097755000105E+00
             6.4999481717000140E+00    8.6726936524000120E+00    9.9088129137000180E+00
             5.0827251906000024E+00    7.6830341484000115E+00    9.4472840536000238E+00
             5.2642530375000076E+00    9.3375835181000095E+00    8.8036806732000219E+00
             7.5523890468000205E+00    5.3296113547000132E+00    9.4720174461000060E+00
             8.2656682135000246E+00    6.8894294916000129E+00    1.0224785081900022E+01
             1.0172648623000018E+01    6.7940130141000115E+00    8.6326527437000173E+00
             9.4684698855000082E+00    5.2344390081000052E+00    7.8741179792000189E+00
       &END COORD
       &VELOCITY
             0.0000000000000000E+00    0.0000000000000000E+00    0.0000000000000000E+00
             0.0000000000000000E+00    0.0000000000000000E+00    0.0000000000000000E+00
             0.0000000000000000E+00    0.0000000000000000E+00    0.0000000000000000E+00
             0.0000000000000000E+00    0.0000000000000000E+00    0.0000000000000000E+00
             0.0000000000000000E+00    0.0000000000000000E+00    0.0000000000000000E+00
             0.0000000000000000E+00    0.0000000000000000E+00    0.0000000000000000E+00
             0.0000000000000000E+00    0.0000000000000000E+00    0.0000000000000000E+00
             0.0000000000000000E+00    0.0000000000000000E+00    0.0000000000000000E+00
             0.0000000000000000E+00    0.0000000000000000E+00    0.0000000000000000E+00
             0.0000000000000000E+00    0.0000000000000000E+00    0.0000000000000000E+00
             0.0000000000000000E+00    0.0000000000000000E+00    0.0000000000000000E+00
             0.0000000000000000E+00    0.0000000000000000E+00    0.0000000000000000E+00
             0.0000000000000000E+00    0.0000000000000000E+00    0.0000000000000000E+00
             0.0000000000000000E+00    0.0000000000000000E+00    0.0000000000000000E+00
             0.0000000000000000E+00    0.0000000000000000E+00    0.0000000000000000E+00
             0.0000000000000000E+00    0.0000000000000000E+00    0.0000000000000000E+00
             0.0000000000000000E+00    0.0000000000000000E+00    0.0000000000000000E+00
             0.0000000000000000E+00    0.0000000000000000E+00    0.0000000000000000E+00
       &END VELOCITY
     &END REPLICA
     &REPLICA
       &COORD
             7.3721995557215889E+00    6.7806642632611043E+00    6.1060877524360659E+00
             8.2401873123284624E+00    7.7680506951169424E+00    6.5039254153686210E+00
             7.7375682864594149E+00    8.4307478320222895E+00    7.5775082622467602E+00
             9.1945257324909111E+00    8.1299492393451462E+00    6.1215435790719379E+00
             9.3528475217073392E+00    6.0730755691749483E+00    8.6223379539200273E+00
             6.5583447597932665E+00    7.8391259597242957E+00    7.9141974286458483E+00
             6.2823623192786977E+00    6.8244946198865222E+00    7.0232033620827217E+00
             5.8167694356429438E+00    8.4241313347443043E+00    9.0543440153310737E+00
             8.2983155977464627E+00    6.1303421974019230E+00    9.4562740051167129E+00
             7.5142726695446429E+00    6.0953123084948633E+00    5.2690483177890926E+00
             5.3994795564133478E+00    6.1830197495525825E+00    7.0403770343849201E+00
             6.5150114381434481E+00    8.7707952799925479E+00    9.8361173705395455E+00
             5.1466651640703249E+00    7.6700656211371685E+00    9.4988986488900338E+00
             5.1991268772080277E+00    9.2894701911180295E+00    8.7480869426588566E+00
             7.5323031581492792E+00    5.3448481653801325E+00    9.4721670009310870E+00
             8.1679310126286886E+00    6.9670883247461166E+00    1.0156288181859342E+01
             1.0116599984367486E+01    6.8617938846796234E+00    8.6108566882876723E+00
             9.4890856082484021E+00    5.2386030386726299E+00    7.9230993497951294E+00
       &END COORD
       &VELOCITY
             0.0000000000000000E+00    0.0000000000000000E+00    0.0000000000000000E+00
             0.0000000000000000E+00    0.0000000000000000E+00    0.0000000000000000E+00
             0.0000000000000000E+00    0.0000000000000000E+00    0.0000000000000000E+00
             0.0000000000000000E+00    0.0000000000000000E+00    0.0000000000000000E+00
             0.0000000000000000E+00    0.0000000000000000E+00    0.0000000000000000E+00
             0.0000000000000000E+00    0.0000000000000000E+00    0.0000000000000000E+00
             0.0000000000000000E+00    0.0000000000000000E+00    0.0000000000000000E+00
             0.0000000000000000E+00    0.0000000000000000E+00    0.0000000000000000E+00
             0.0000000000000000E+00    0.0000000000000000E+00    0.0000000000000000E+00
             0.0000000000000000E+00    0.0000000000000000E+00    0.0000000000000000E+00
             0.0000000000000000E+00    0.0000000000000000E+00    0.0000000000000000E+00
             0.0000000000000000E+00    0.0000000000000000E+00    0.0000000000000000E+00
             0.0000000000000000E+00    0.0000000000000000E+00    0.0000000000000000E+00
             0.0000000000000000E+00    0.0000000000000000E+00    0.0000000000000000E+00
             0.0000000000000000E+00    0.0000000000000000E+00    0.0000000000000000E+00
             0.0000000000000000E+00    0.0000000000000000E+00    0.0000000000000000E+00
             0.0000000000000000E+00    0.0000000000000000E+00    0.0000000000000000E+00
             0.0000000000000000E+00    0.0000000000000000E+00    0.0000000000000000E+00
       &END VELOCITY
     &END REPLICA
     &REPLICA
       &COORD
             7.3966109405236455E+00    6.7611273762418787E+00    6.1239188173056327E+00
             8.2600189317434545E+00    7.7533237235734287E+00    6.5219785907306305E+00
             7.7417676751881332E+00    8.4308862969217486E+00    7.5780807641206813E+00
             9.2213233861317061E+00    8.1076445853421841E+00    6.1501986265942659E+00
             9.3098844051316618E+00    6.1218891779663913E+00    8.5959450586478070E+00
             6.5643583594203561E+00    7.8358553265059774E+00    7.9132466274608895E+00
             6.2986381355469723E+00    6.8123314461862368E+00    7.0283338669389677E+00
             5.8104574977271604E+00    8.4264920976724689E+00    9.0429586981823746E+00
             8.2475773360503393E+00    6.1791287149338494E+00    9.4210012423810259E+00
             7.5534232430743193E+00    6.0615570386186297E+00    5.3014529503710035E+00
             5.4205093129300161E+00    6.1647404894763707E+00    7.0486458997828292E+00
             6.5020610245236341E+00    8.8651826310602111E+00    9.7830117575476088E+00
             5.2113865831279096E+00    7.6511936338707596E+00    9.5492917187275204E+00
             5.1211665022220298E+00    9.2253462268180293E+00    8.7104914178201209E+00
             7.4840027624939802E+00    5.3915251042085206E+00    9.4354625616684764E+00
             8.1055024059483340E+00    7.0212805438068902E+00    1.0111979169767542E+01
             1.0067345702317890E+01    6.9164704082819828E+00    8.5834711158848034E+00
             9.4564907058625760E+00    5.2855652108135835E+00    7.9014544537576921E+00
       &END COORD
       &VELOCITY
             0.0000000000000000E+00    0.0000000000000000E+00    0.0000000000000000E+00
             0.0000000000000000E+00    0.0000000000000000E+00    0.0000000000000000E+00
             0.0000000000000000E+00    0.0000000000000000E+00    0.0000000000000000E+00
             0.0000000000000000E+00    0.0000000000000000E+00    0.0000000000000000E+00
             0.0000000000000000E+00    0.0000000000000000E+00    0.0000000000000000E+00
             0.0000000000000000E+00    0.0000000000000000E+00    0.0000000000000000E+00
             0.0000000000000000E+00    0.0000000000000000E+00    0.0000000000000000E+00
             0.0000000000000000E+00    0.0000000000000000E+00    0.0000000000000000E+00
             0.0000000000000000E+00    0.0000000000000000E+00    0.0000000000000000E+00
             0.0000000000000000E+00    0.0000000000000000E+00    0.0000000000000000E+00
             0.0000000000000000E+00    0.0000000000000000E+00    0.0000000000000000E+00
             0.0000000000000000E+00    0.0000000000000000E+00    0.0000000000000000E+00
             0.0000000000000000E+00    0.0000000000000000E+00    0.0000000000000000E+00
             0.0000000000000000E+00    0.0000000000000000E+00    0.0000000000000000E+00
             0.0000000000000000E+00    0.0000000000000000E+00    0.0000000000000000E+00
             0.0000000000000000E+00    0.0000000000000000E+00    0.0000000000000000E+00
             0.0000000000000000E+00    0.0000000000000000E+00    0.0000000000000000E+00
             0.0000000000000000E+00    0.0000000000000000E+00    0.0000000000000000E+00
       &END VELOCITY
     &END REPLICA
     &REPLICA
       &COORD
             7.4260291388985369E+00    6.7456505984037243E+00    6.1615001881335472E+00
             8.2969843914004056E+00    7.7292316949351765E+00    6.5713149523139132E+00
             7.7624734591412841E+00    8.4279442651638394E+00    7.6046506224068446E+00
             9.2658122369187783E+00    8.0714273781277548E+00    6.2077721336705292E+00
             9.2586142639764617E+00    6.1720820110593202E+00    8.5312954583636564E+00
             6.5957603973883483E+00    7.8199122818119200E+00    7.9499196552235620E+00
             6.3260144626134380E+00    6.8017372296569620E+00    7.0573357885814065E+00
             5.8201774883492199E+00    8.4183386589686950E+00    9.0602710999600653E+00
             8.1978473253327007E+00    6.2291624234395400E+00    9.3619924279069480E+00
             7.5871110568482090E+00    6.0417573809959570E+00    5.3436788521773977E+00
             5.4468280447450832E+00    6.1558759616286833E+00    7.0773252797054891E+00
             6.4867209279127724E+00    8.8926228795625715E+00    9.8015946058097629E+00
             5.2293157823364780E+00    7.6428715663906468E+00    9.5769463562556361E+00
             5.1208377701524412E+00    9.1887718031340153E+00    8.6874817743881323E+00
             7.4270506482539869E+00    5.4492856873155988E+00    9.3729505643044888E+00
             8.0746752115553768E+00    7.0565284843059883E+00    1.0073697922927485E+01
             1.0030408219953884E+01    6.9525244228581853E+00    8.5375599268427464E+00
             9.3986513022258293E+00    5.3447925467011368E+00    7.8255806258440135E+00
       &END COORD
       &VELOCITY
             0.0000000000000000E+00    0.0000000000000000E+00    0.0000000000000000E+00
             0.0000000000000000E+00    0.0000000000000000E+00    0.0000000000000000E+00
             0.0000000000000000E+00    0.0000000000000000E+00    0.0000000000000000E+00
             0.0000000000000000E+00    0.0000000000000000E+00    0.0000000000000000E+00
             0.0000000000000000E+00    0.0000000000000000E+00    0.0000000000000000E+00
             0.0000000000000000E+00    0.0000000000000000E+00    0.0000000000000000E+00
             0.0000000000000000E+00    0.0000000000000000E+00    0.0000000000000000E+00
             0.0000000000000000E+00    0.0000000000000000E+00    0.0000000000000000E+00
             0.0000000000000000E+00    0.0000000000000000E+00    0.0000000000000000E+00
             0.0000000000000000E+00    0.0000000000000000E+00    0.0000000000000000E+00
             0.0000000000000000E+00    0.0000000000000000E+00    0.0000000000000000E+00
             0.0000000000000000E+00    0.0000000000000000E+00    0.0000000000000000E+00
             0.0000000000000000E+00    0.0000000000000000E+00    0.0000000000000000E+00
             0.0000000000000000E+00    0.0000000000000000E+00    0.0000000000000000E+00
             0.0000000000000000E+00    0.0000000000000000E+00    0.0000000000000000E+00
             0.0000000000000000E+00    0.0000000000000000E+00    0.0000000000000000E+00
             0.0000000000000000E+00    0.0000000000000000E+00    0.0000000000000000E+00
             0.0000000000000000E+00    0.0000000000000000E+00    0.0000000000000000E+00
       &END VELOCITY
     &END REPLICA
     &REPLICA
       &COORD
             7.4416120210162005E+00    6.7327119514161584E+00    6.1911837556853335E+00
             8.3476548542743423E+00    7.6754727462173422E+00    6.6442215276741967E+00
             7.7978215668782793E+00    8.4096919111306434E+00    7.6461897777495844E+00
             9.2956475924379252E+00    8.0338177381189304E+00    6.2443890339171464E+00
             9.2033553875245211E+00    6.2339392188054950E+00    8.4483740328370160E+00
             6.6508031917753945E+00    7.7746118546482625E+00    8.0135145591497245E+00
             6.3488866253328604E+00    6.7916968801565289E+00    7.0807456023726045E+00
             5.8382151582829600E+00    8.4004227811679293E+00    9.0808740096150817E+00
             8.1379518103237718E+00    6.2892155397926039E+00    9.2880543618038018E+00
             7.5916623866862087E+00    6.0390593127148282E+00    5.3621623339391382E+00
             5.4587859540316810E+00    6.1602631371059084E+00    7.0887468210067270E+00
             6.4734189006094418E+00    8.9001487873121281E+00    9.8322649889843916E+00
             5.2288745950134174E+00    7.6389050681595423E+00    9.5968864841559274E+00
             5.1541812333291430E+00    9.1528240455505880E+00    8.6487115044049556E+00
             7.3956133076916011E+00    5.4854427282260056E+00    9.3358714679368831E+00
             8.0574919807286740E+00    7.0773127263202253E+00    1.0047569770184881E+01
             1.0009427390946918E+01    6.9751239001823562E+00    8.5088950338862404E+00
             9.3700022788285011E+00    5.3837460406056454E+00    7.7788832228762805E+00
       &END COORD
       &VELOCITY
             0.0000000000000000E+00    0.0000000000000000E+00    0.0000000000000000E+00
             0.0000000000000000E+00    0.0000000000000000E+00    0.0000000000000000E+00
             0.0000000000000000E+00    0.0000000000000000E+00    0.0000000000000000E+00
             0.0000000000000000E+00    0.0000000000000000E+00    0.0000000000000000E+00
             0.0000000000000000E+00    0.0000000000000000E+00    0.0000000000000000E+00
             0.0000000000000000E+00    0.0000000000000000E+00    0.0000000000000000E+00
             0.0000000000000000E+00    0.0000000000000000E+00    0.0000000000000000E+00
             0.0000000000000000E+00    0.0000000000000000E+00    0.0000000000000000E+00
             0.0000000000000000E+00    0.0000000000000000E+00    0.0000000000000000E+00
             0.0000000000000000E+00    0.0000000000000000E+00    0.0000000000000000E+00
             0.0000000000000000E+00    0.0000000000000000E+00    0.0000000000000000E+00
             0.0000000000000000E+00    0.0000000000000000E+00    0.0000000000000000E+00
             0.0000000000000000E+00    0.0000000000000000E+00    0.0000000000000000E+00
             0.0000000000000000E+00    0.0000000000000000E+00    0.0000000000000000E+00
             0.0000000000000000E+00    0.0000000000000000E+00    0.0000000000000000E+00
             0.0000000000000000E+00    0.0000000000000000E+00    0.0000000000000000E+00
             0.0000000000000000E+00    0.0000000000000000E+00    0.0000000000000000E+00
             0.0000000000000000E+00    0.0000000000000000E+00    0.0000000000000000E+00
       &END VELOCITY
     &END REPLICA
     &REPLICA
       &COORD
             7.4387073851709111E+00    6.7221505860023099E+00    6.2064911721664728E+00
             8.4051699260153985E+00    7.6038681716919427E+00    6.7333702031022993E+00
             7.8089040045480091E+00    8.4151362977639810E+00    7.6563342203932310E+00
             9.2971764436061015E+00    8.0146182237795056E+00    6.2548481055412504E+00
             9.1450639211425937E+00    6.3135881658041475E+00    8.3410850757718578E+00
             6.7138849629289101E+00    7.7141194222836900E+00    8.0867742095533686E+00
             6.3613445562808577E+00    6.7826137722775153E+00    7.0828936258284170E+00
             5.8506369534236073E+00    8.3858811829133444E+00    9.0908711528232438E+00
             8.0552298454245932E+00    6.3671100426630352E+00    9.2061559136352749E+00
             7.5864659191409780E+00    6.0388157635897635E+00    5.3673127428211247E+00
             5.4620302264314002E+00    6.1626341871398980E+00    7.0862841389759357E+00
             6.4650906265355745E+00    8.9036966154653818E+00    9.8468655308697830E+00
             5.2255081573545352E+00    7.6383479599765023E+00    9.6077518064836447E+00
             5.1795279906526508E+00    9.1280544411927718E+00    8.6196940702236446E+00
             7.3936522318422977E+00    5.5016238247443656E+00    9.3276368411591921E+00
             8.0589912683440197E+00    7.0774256630311312E+00    1.0043430622916617E+01
             1.0003673609382552E+01    6.9755939564412843E+00    8.5091420993337117E+00
             9.3620981344885923E+00    5.4019776130350916E+00    7.7727005411588719E+00
       &END COORD
       &VELOCITY
             0.0000000000000000E+00    0.0000000000000000E+00    0.0000000000000000E+00
             0.0000000000000000E+00    0.0000000000000000E+00    0.0000000000000000E+00
             0.0000000000000000E+00    0.0000000000000000E+00    0.0000000000000000E+00
             0.0000000000000000E+00    0.0000000000000000E+00    0.0000000000000000E+00
             0.0000000000000000E+00    0.0000000000000000E+00    0.0000000000000000E+00
             0.0000000000000000E+00    0.0000000000000000E+00    0.0000000000000000E+00
             0.0000000000000000E+00    0.0000000000000000E+00    0.0000000000000000E+00
             0.0000000000000000E+00    0.0000000000000000E+00    0.0000000000000000E+00
             0.0000000000000000E+00    0.0000000000000000E+00    0.0000000000000000E+00
             0.0000000000000000E+00    0.0000000000000000E+00    0.0000000000000000E+00
             0.0000000000000000E+00    0.0000000000000000E+00    0.0000000000000000E+00
             0.0000000000000000E+00    0.0000000000000000E+00    0.0000000000000000E+00
             0.0000000000000000E+00    0.0000000000000000E+00    0.0000000000000000E+00
             0.0000000000000000E+00    0.0000000000000000E+00    0.0000000000000000E+00
             0.0000000000000000E+00    0.0000000000000000E+00    0.0000000000000000E+00
             0.0000000000000000E+00    0.0000000000000000E+00    0.0000000000000000E+00
             0.0000000000000000E+00    0.0000000000000000E+00    0.0000000000000000E+00
             0.0000000000000000E+00    0.0000000000000000E+00    0.0000000000000000E+00
       &END VELOCITY
     &END REPLICA
     &REPLICA
       &COORD
             7.4300251932902732E+00    6.7118709173441378E+00    6.2139209929548862E+00
             8.4607279975887923E+00    7.5378593457045371E+00    6.8190053613207340E+00
             7.8090133209611698E+00    8.4287186057529802E+00    7.6540659234467370E+00
             9.2898108536118666E+00    8.0009946859516390E+00    6.2625659782509002E+00
             9.1057233243447264E+00    6.3893899257898497E+00    8.2368105829212741E+00
             6.7752138107681796E+00    7.6527961172495544E+00    8.1587556858576331E+00
             6.3679473679873002E+00    6.7731015387072695E+00    7.0747860640717031E+00
             5.8586291552950609E+00    8.3747200528115471E+00    9.0946007234288366E+00
             7.9693064614058144E+00    6.4432639422123197E+00    9.1439887137985707E+00
             7.5809619116120164E+00    6.0399094009707124E+00    5.3647654095960267E+00
             5.4596531379002258E+00    6.1646170410111605E+00    7.0792383537351578E+00
             6.4615969996130049E+00    8.9045946279218509E+00    9.8517413156385985E+00
             5.2224996797278900E+00    7.6387845451836585E+00    9.6137621613652637E+00
             5.1940583482628648E+00    9.1146972204607657E+00    8.6057939417040270E+00
             7.4016257505203464E+00    5.5150475412008797E+00    9.3244688689845514E+00
             8.0691620808468407E+00    7.0685146870308806E+00    1.0044885723519629E+01
             9.9995048245350961E+00    6.9671162542281033E+00    8.5182552842706745E+00
             9.3563659729019353E+00    5.4172977476197905E+00    7.7787081715973754E+00
       &END COORD
       &VELOCITY
             0.0000000000000000E+00    0.0000000000000000E+00    0.0000000000000000E+00
             0.0000000000000000E+00    0.0000000000000000E+00    0.0000000000000000E+00
             0.0000000000000000E+00    0.0000000000000000E+00    0.0000000000000000E+00
             0.0000000000000000E+00    0.0000000000000000E+00    0.0000000000000000E+00
             0.0000000000000000E+00    0.0000000000000000E+00    0.0000000000000000E+00
             0.0000000000000000E+00    0.0000000000000000E+00    0.0000000000000000E+00
             0.0000000000000000E+00    0.0000000000000000E+00    0.0000000000000000E+00
             0.0000000000000000E+00    0.0000000000000000E+00    0.0000000000000000E+00
             0.0000000000000000E+00    0.0000000000000000E+00    0.0000000000000000E+00
             0.0000000000000000E+00    0.0000000000000000E+00    0.0000000000000000E+00
             0.0000000000000000E+00    0.0000000000000000E+00    0.0000000000000000E+00
             0.0000000000000000E+00    0.0000000000000000E+00    0.0000000000000000E+00
             0.0000000000000000E+00    0.0000000000000000E+00    0.0000000000000000E+00
             0.0000000000000000E+00    0.0000000000000000E+00    0.0000000000000000E+00
             0.0000000000000000E+00    0.0000000000000000E+00    0.0000000000000000E+00
             0.0000000000000000E+00    0.0000000000000000E+00    0.0000000000000000E+00
             0.0000000000000000E+00    0.0000000000000000E+00    0.0000000000000000E+00
             0.0000000000000000E+00    0.0000000000000000E+00    0.0000000000000000E+00
       &END VELOCITY
     &END REPLICA
     &REPLICA
       &COORD
             7.4285293134578874E+00    6.6963383311597440E+00    6.2259431404547243E+00
             8.5142146945480626E+00    7.4742887104325098E+00    6.8959495010463039E+00
             7.8158740641257287E+00    8.4319658289159687E+00    7.6595786920989442E+00
             9.2869732302942953E+00    7.9740792765843711E+00    6.2803472393901965E+00
             9.0706412916493360E+00    6.4681408561799580E+00    8.1375317369402644E+00
             6.8362850564105093E+00    7.5872769541206164E+00    8.2329913293219938E+00
             6.3768158896872693E+00    6.7581611384100082E+00    7.0766430140420269E+00
             5.8725509481495317E+00    8.3548668240596911E+00    9.1019770520433099E+00
             7.8808422726035658E+00    6.5277160128094671E+00    9.0844009807626964E+00
             7.5684907989911201E+00    6.0466917669968216E+00    5.3570757348039209E+00
             5.4561147703412418E+00    6.1676673694118147E+00    7.0699490234708158E+00
             6.4562690424793647E+00    8.9070992874420298E+00    9.8588386964985748E+00
             5.2181869447211184E+00    7.6386426868732835E+00    9.6252227535492256E+00
             5.2213228788385937E+00    9.0873346424263790E+00    8.5810284214552670E+00
             7.4072244876464035E+00    5.5463251738666814E+00    9.3084188121301157E+00
             8.0799821728571644E+00    7.0626907651419968E+00    1.0033291340076099E+01
             9.9808460550044469E+00    6.9634131547750746E+00    8.5265565840248811E+00
             9.3398128955799962E+00    5.4481320424904043E+00    7.7834227996131666E+00
       &END COORD
       &VELOCITY
             0.0000000000000000E+00    0.0000000000000000E+00    0.0000000000000000E+00
             0.0000000000000000E+00    0.0000000000000000E+00    0.0000000000000000E+00
             0.0000000000000000E+00    0.0000000000000000E+00    0.0000000000000000E+00
             0.0000000000000000E+00    0.0000000000000000E+00    0.0000000000000000E+00
             0.0000000000000000E+00    0.0000000000000000E+00    0.0000000000000000E+00
             0.0000000000000000E+00    0.0000000000000000E+00    0.0000000000000000E+00
             0.0000000000000000E+00    0.0000000000000000E+00    0.0000000000000000E+00
             0.0000000000000000E+00    0.0000000000000000E+00    0.0000000000000000E+00
             0.0000000000000000E+00    0.0000000000000000E+00    0.0000000000000000E+00
             0.0000000000000000E+00    0.0000000000000000E+00    0.0000000000000000E+00
             0.0000000000000000E+00    0.0000000000000000E+00    0.0000000000000000E+00
             0.0000000000000000E+00    0.0000000000000000E+00    0.0000000000000000E+00
             0.0000000000000000E+00    0.0000000000000000E+00    0.0000000000000000E+00
             0.0000000000000000E+00    0.0000000000000000E+00    0.0000000000000000E+00
             0.0000000000000000E+00    0.0000000000000000E+00    0.0000000000000000E+00
             0.0000000000000000E+00    0.0000000000000000E+00    0.0000000000000000E+00
             0.0000000000000000E+00    0.0000000000000000E+00    0.0000000000000000E+00
             0.0000000000000000E+00    0.0000000000000000E+00    0.0000000000000000E+00
       &END VELOCITY
     &END REPLICA
     &REPLICA
       &COORD
             7.4303577570359129E+00    6.6676803812637164E+00    6.2503424564376813E+00
             8.5385127691103850E+00    7.4353223434370754E+00    6.9347321612995412E+00
             7.8242392177476363E+00    8.4296619072529424E+00    7.6656562361042724E+00
             9.3086209275664036E+00    7.9042852000605386E+00    6.3036584083938232E+00
             9.0454813765033677E+00    6.5190589263015299E+00    8.0890924814700966E+00
             6.8757960939436220E+00    7.5464836478155704E+00    8.2847174374915795E+00
             6.3868629601559386E+00    6.7335385087273618E+00    7.1008544031135425E+00
             5.8920545329940399E+00    8.3144921978470485E+00    9.1189073621166497E+00
             7.8435642736494051E+00    6.5881753405964849E+00    9.0536552469273115E+00
             7.5329241715070250E+00    6.0669806648076028E+00    5.3404920251318577E+00
             5.4328135049651518E+00    6.1975589075459414E+00    7.0495869283049233E+00
             6.4370761495077371E+00    8.9034684113050897E+00    9.8778704647332543E+00
             5.2083418455303718E+00    7.6239141054214548E+00    9.6420349182573055E+00
             5.2873082127463613E+00    9.0086139436260897E+00    8.5087972747711085E+00
             7.3896929148402384E+00    5.6051379791495650E+00    9.2734214193685300E+00
             8.1183170656984949E+00    7.0634097548949351E+00    1.0012994331030292E+01
             9.9499849670184695E+00    6.9629581083900440E+00    8.5399369736405770E+00
             9.2933635836773494E+00    5.4955885042636181E+00    7.7560858955162866E+00
       &END COORD
       &VELOCITY
             0.0000000000000000E+00    0.0000000000000000E+00    0.0000000000000000E+00
             0.0000000000000000E+00    0.0000000000000000E+00    0.0000000000000000E+00
             0.0000000000000000E+00    0.0000000000000000E+00    0.0000000000000000E+00
             0.0000000000000000E+00    0.0000000000000000E+00    0.0000000000000000E+00
             0.0000000000000000E+00    0.0000000000000000E+00    0.0000000000000000E+00
             0.0000000000000000E+00    0.0000000000000000E+00    0.0000000000000000E+00
             0.0000000000000000E+00    0.0000000000000000E+00    0.0000000000000000E+00
             0.0000000000000000E+00    0.0000000000000000E+00    0.0000000000000000E+00
             0.0000000000000000E+00    0.0000000000000000E+00    0.0000000000000000E+00
             0.0000000000000000E+00    0.0000000000000000E+00    0.0000000000000000E+00