 # Version information for this restart file 
 # current date 2022-06-16 11:05:07.459
 # current working dir /work/hpc/users/wnw36/MSU-DFT-Catalysis-School/5_NEB/2_Diels-Alder
 # Program compiled at                              Mon May 23 16:32:41 CDT 2022
 # Program compiled on                             Orion-devel-1.HPC.MsState.Edu
 # Program compiled for                                  Linux-x86-64-intel-hpc2
 # Source code revision number                                       git:d8d7100
 &GLOBAL
   PRINT_LEVEL  MEDIUM
   PROJECT_NAME Diels-Alder-r-0
   OUTPUT_FILE_NAME Diels-Alder-r-0.out
   RUN_TYPE  BAND
   WALLTIME 47:58:00
 &END GLOBAL
 &MOTION
   &BAND
     NPROC_REP  12
     BAND_TYPE  CI-NEB
     NUMBER_OF_REPLICA  10
     ROTATE_FRAMES  T
     ALIGN_FRAMES  T
     K_SPRING     5.0000000000000003E-02
     &CONVERGENCE_CONTROL
       MAX_DR     1.0000000000000000E-03
       MAX_FORCE     1.0000000000000000E-03
       RMS_DR     5.0000000000000001E-03
       RMS_FORCE     5.0000000000000001E-03
     &END CONVERGENCE_CONTROL
     &CI_NEB
       NSTEPS_IT  5
     &END CI_NEB
     &OPTIMIZE_BAND
       OPT_TYPE  DIIS
       OPTIMIZE_END_POINTS  F
       &DIIS
         MAX_STEPS  400
       &END DIIS
     &END OPTIMIZE_BAND
     &REPLICA
       &COORD
             7.3629150000000125E+00    6.8025800000000141E+00    6.1148800000000110E+00
             8.2334820097000154E+00    7.7879118505000093E+00    6.5113178957000137E+00
             7.7379631168000111E+00    8.4421429294000188E+00    7.5939733998000110E+00
             9.1891269845000210E+00    8.1471716695000218E+00    6.1280166441000068E+00
             9.3792030766000174E+00    6.0351017222000136E+00    8.6188423547000266E+00
             6.5584376089000092E+00    7.8514733810000106E+00    7.9308262290000116E+00
             6.2741561796000145E+00    6.8456748071000098E+00    7.0348359464000145E+00
             5.8161985998000079E+00    8.4192308110000198E+00    9.0794824339000133E+00
             8.3462195928000291E+00    6.0871051940000171E+00    9.4785677268000299E+00
             7.4955795001000078E+00    6.1224053217000165E+00    5.2717930157000072E+00
             5.3859254853000040E+00    6.2111438670000094E+00    7.0590097755000105E+00
             6.4999481717000140E+00    8.6726936524000120E+00    9.9088129137000180E+00
             5.0827251906000024E+00    7.6830341484000115E+00    9.4472840536000238E+00
             5.2642530375000076E+00    9.3375835181000095E+00    8.8036806732000219E+00
             7.5523890468000205E+00    5.3296113547000132E+00    9.4720174461000060E+00
             8.2656682135000246E+00    6.8894294916000129E+00    1.0224785081900022E+01
             1.0172648623000018E+01    6.7940130141000115E+00    8.6326527437000173E+00
             9.4684698855000082E+00    5.2344390081000052E+00    7.8741179792000189E+00
       &END COORD
       &VELOCITY
             0.0000000000000000E+00    0.0000000000000000E+00    0.0000000000000000E+00
             0.0000000000000000E+00    0.0000000000000000E+00    0.0000000000000000E+00
             0.0000000000000000E+00    0.0000000000000000E+00    0.0000000000000000E+00
             0.0000000000000000E+00    0.0000000000000000E+00    0.0000000000000000E+00
             0.0000000000000000E+00    0.0000000000000000E+00    0.0000000000000000E+00
             0.0000000000000000E+00    0.0000000000000000E+00    0.0000000000000000E+00
             0.0000000000000000E+00    0.0000000000000000E+00    0.0000000000000000E+00
             0.0000000000000000E+00    0.0000000000000000E+00    0.0000000000000000E+00
             0.0000000000000000E+00    0.0000000000000000E+00    0.0000000000000000E+00
             0.0000000000000000E+00    0.0000000000000000E+00    0.0000000000000000E+00
             0.0000000000000000E+00    0.0000000000000000E+00    0.0000000000000000E+00
             0.0000000000000000E+00    0.0000000000000000E+00    0.0000000000000000E+00
             0.0000000000000000E+00    0.0000000000000000E+00    0.0000000000000000E+00
             0.0000000000000000E+00    0.0000000000000000E+00    0.0000000000000000E+00
             0.0000000000000000E+00    0.0000000000000000E+00    0.0000000000000000E+00
             0.0000000000000000E+00    0.0000000000000000E+00    0.0000000000000000E+00
             0.0000000000000000E+00    0.0000000000000000E+00    0.0000000000000000E+00
             0.0000000000000000E+00    0.0000000000000000E+00    0.0000000000000000E+00
       &END VELOCITY
     &END REPLICA
     &REPLICA
       &COORD
             7.3724222049317696E+00    6.7804038307902692E+00    6.1060880850455428E+00
             8.2401577720412558E+00    7.7681054541334422E+00    6.5037778763775504E+00
             7.7373893640515714E+00    8.4307832514652556E+00    7.5772375067926632E+00
             9.1945275565474791E+00    8.1298698543445429E+00    6.1213916489920681E+00
             9.3528913457620622E+00    6.0729706050373329E+00    8.6226429876181800E+00
             6.5584083740156647E+00    7.8389080126050459E+00    7.9142439327285148E+00
             6.2824035424652198E+00    6.8244410270398710E+00    7.0229850074567244E+00
             5.8167436369414727E+00    8.4242514547628033E+00    9.0542489668384718E+00
             8.2984304560851001E+00    6.1301120049544320E+00    9.4566060542705426E+00
             7.5143255428402114E+00    6.0951681234961965E+00    5.2689374689121653E+00
             5.3995917152490707E+00    6.1829006288630861E+00    7.0403438885930507E+00
             6.5151134799202355E+00    8.7709465633515986E+00    9.8358950766564064E+00
             5.1466785859448327E+00    7.6701027537064155E+00    9.4988070833204343E+00
             5.1991092064715660E+00    9.2895805482517275E+00    8.7476932692872147E+00
             7.5324588576850768E+00    5.3445296103295261E+00    9.4724697033958591E+00
             8.1678955326448133E+00    6.9668609141326394E+00    1.0156497935575047E+01
             1.0116609365250147E+01    6.8616721415062605E+00    8.6111519893909527E+00
             9.4893048720009805E+00    5.2383720058885057E+00    7.9234620948262560E+00
       &END COORD
       &VELOCITY
             0.0000000000000000E+00    0.0000000000000000E+00    0.0000000000000000E+00
             0.0000000000000000E+00    0.0000000000000000E+00    0.0000000000000000E+00
             0.0000000000000000E+00    0.0000000000000000E+00    0.0000000000000000E+00
             0.0000000000000000E+00    0.0000000000000000E+00    0.0000000000000000E+00
             0.0000000000000000E+00    0.0000000000000000E+00    0.0000000000000000E+00
             0.0000000000000000E+00    0.0000000000000000E+00    0.0000000000000000E+00
             0.0000000000000000E+00    0.0000000000000000E+00    0.0000000000000000E+00
             0.0000000000000000E+00    0.0000000000000000E+00    0.0000000000000000E+00
             0.0000000000000000E+00    0.0000000000000000E+00    0.0000000000000000E+00
             0.0000000000000000E+00    0.0000000000000000E+00    0.0000000000000000E+00
             0.0000000000000000E+00    0.0000000000000000E+00    0.0000000000000000E+00
             0.0000000000000000E+00    0.0000000000000000E+00    0.0000000000000000E+00
             0.0000000000000000E+00    0.0000000000000000E+00    0.0000000000000000E+00
             0.0000000000000000E+00    0.0000000000000000E+00    0.0000000000000000E+00
             0.0000000000000000E+00    0.0000000000000000E+00    0.0000000000000000E+00
             0.0000000000000000E+00    0.0000000000000000E+00    0.0000000000000000E+00
             0.0000000000000000E+00    0.0000000000000000E+00    0.0000000000000000E+00
             0.0000000000000000E+00    0.0000000000000000E+00    0.0000000000000000E+00
       &END VELOCITY
     &END REPLICA
     &REPLICA
       &COORD
             7.3973262004952707E+00    6.7606928491795957E+00    6.1243103419267015E+00
             8.2602722462897589E+00    7.7533895258420964E+00    6.5223248653111705E+00
             7.7411974775928636E+00    8.4318171372338462E+00    7.5776873068221313E+00
             9.2216833301213086E+00    8.1075394199854856E+00    6.1504826875670631E+00
             9.3096713685030430E+00    6.1220208996814103E+00    8.5956620410475661E+00
             6.5646291880386647E+00    7.8356527987912896E+00    7.9137695260423007E+00
             6.2988425791790714E+00    6.8122921332229360E+00    7.0284423648130749E+00
             5.8102859366063733E+00    8.4267180947158256E+00    9.0431804760543848E+00
             8.2475254855884295E+00    6.1790776737066340E+00    9.4210438401080872E+00
             7.5537613236847596E+00    6.0614263404728774E+00    5.3016995532090538E+00
             5.4206825859298293E+00    6.1645130373943466E+00    7.0488500477870701E+00
             6.5019885020849166E+00    8.8654229973730683E+00    9.7830514201268404E+00
             5.2113041184623272E+00    7.6513465532352969E+00    9.5492868125863257E+00
             5.1215456681201141E+00    9.2251053147046846E+00    8.7099632093694694E+00
             7.4836474159965567E+00    5.3915759709465094E+00    9.4351560398175334E+00
             8.1057745882888934E+00    7.0209022061770030E+00    1.0112405674173797E+01
             1.0067472250668848E+01    6.9162532631003462E+00    8.5836594230025991E+00
             9.4560731517020784E+00    5.2857466070394130E+00    7.9008489205722539E+00
       &END COORD
       &VELOCITY
             0.0000000000000000E+00    0.0000000000000000E+00    0.0000000000000000E+00
             0.0000000000000000E+00    0.0000000000000000E+00    0.0000000000000000E+00
             0.0000000000000000E+00    0.0000000000000000E+00    0.0000000000000000E+00
             0.0000000000000000E+00    0.0000000000000000E+00    0.0000000000000000E+00
             0.0000000000000000E+00    0.0000000000000000E+00    0.0000000000000000E+00
             0.0000000000000000E+00    0.0000000000000000E+00    0.0000000000000000E+00
             0.0000000000000000E+00    0.0000000000000000E+00    0.0000000000000000E+00
             0.0000000000000000E+00    0.0000000000000000E+00    0.0000000000000000E+00
             0.0000000000000000E+00    0.0000000000000000E+00    0.0000000000000000E+00
             0.0000000000000000E+00    0.0000000000000000E+00    0.0000000000000000E+00
             0.0000000000000000E+00    0.0000000000000000E+00    0.0000000000000000E+00
             0.0000000000000000E+00    0.0000000000000000E+00    0.0000000000000000E+00
             0.0000000000000000E+00    0.0000000000000000E+00    0.0000000000000000E+00
             0.0000000000000000E+00    0.0000000000000000E+00    0.0000000000000000E+00
             0.0000000000000000E+00    0.0000000000000000E+00    0.0000000000000000E+00
             0.0000000000000000E+00    0.0000000000000000E+00    0.0000000000000000E+00
             0.0000000000000000E+00    0.0000000000000000E+00    0.0000000000000000E+00
             0.0000000000000000E+00    0.0000000000000000E+00    0.0000000000000000E+00
       &END VELOCITY
     &END REPLICA
     &REPLICA
       &COORD
             7.4263982356499758E+00    6.7453841413651912E+00    6.1614429866499627E+00
             8.2964762265275649E+00    7.7298876964548482E+00    6.5707005501464151E+00
             7.7626729088067838E+00    8.4279071966669896E+00    7.6047711085135239E+00
             9.2656483479147997E+00    8.0717407279426734E+00    6.2075921255605859E+00
             9.2589097658154937E+00    6.1716952955994504E+00    8.5316772354686776E+00
             6.5952616750474320E+00    7.8200736610115618E+00    7.9497259279824970E+00
             6.3259834359651395E+00    6.8018169052475486E+00    7.0570800855549551E+00
             5.8199733487975509E+00    8.4188222632476784E+00    9.0601111313527767E+00
             8.1985014892863273E+00    6.2285883636199770E+00    9.3625387564084530E+00
             7.5873346500375130E+00    6.0416232881102552E+00    5.3439874801224372E+00
             5.4468620015103122E+00    6.1556399287234944E+00    7.0774484826586388E+00
             6.4868268304363621E+00    8.8923428681728218E+00    9.8012444127011378E+00
             5.2291920613636194E+00    7.6432470360243459E+00    9.5765338962443405E+00
             5.1209942399871826E+00    9.1892489902733629E+00    8.6877855409508271E+00
             7.4270753592749932E+00    5.4491143463911165E+00    9.3728137656450077E+00
             8.0751223484567536E+00    7.0558536350899637E+00    1.0074081825323104E+01
             1.0030787724831352E+01    6.9520778845561813E+00    8.5378257552095640E+00
             9.3986121882961822E+00    5.3447399625672984E+00    7.8253826152770118E+00
       &END COORD
       &VELOCITY
             0.0000000000000000E+00    0.0000000000000000E+00    0.0000000000000000E+00
             0.0000000000000000E+00    0.0000000000000000E+00    0.0000000000000000E+00
             0.0000000000000000E+00    0.0000000000000000E+00    0.0000000000000000E+00
             0.0000000000000000E+00    0.0000000000000000E+00    0.0000000000000000E+00
             0.0000000000000000E+00    0.0000000000000000E+00    0.0000000000000000E+00
             0.0000000000000000E+00    0.0000000000000000E+00    0.0000000000000000E+00
             0.0000000000000000E+00    0.0000000000000000E+00    0.0000000000000000E+00
             0.0000000000000000E+00    0.0000000000000000E+00    0.0000000000000000E+00
             0.0000000000000000E+00    0.0000000000000000E+00    0.0000000000000000E+00
             0.0000000000000000E+00    0.0000000000000000E+00    0.0000000000000000E+00
             0.0000000000000000E+00    0.0000000000000000E+00    0.0000000000000000E+00
             0.0000000000000000E+00    0.0000000000000000E+00    0.0000000000000000E+00
             0.0000000000000000E+00    0.0000000000000000E+00    0.0000000000000000E+00
             0.0000000000000000E+00    0.0000000000000000E+00    0.0000000000000000E+00
             0.0000000000000000E+00    0.0000000000000000E+00    0.0000000000000000E+00
             0.0000000000000000E+00    0.0000000000000000E+00    0.0000000000000000E+00
             0.0000000000000000E+00    0.0000000000000000E+00    0.0000000000000000E+00
             0.0000000000000000E+00    0.0000000000000000E+00    0.0000000000000000E+00
       &END VELOCITY
     &END REPLICA
     &REPLICA
       &COORD
             7.4420426704690739E+00    6.7324147341945801E+00    6.1914538245247952E+00
             8.3476900645087522E+00    7.6756546861478920E+00    6.6445053608971278E+00
             7.7979434362031217E+00    8.4093884010421007E+00    7.6465108943403166E+00
             9.2957968392168411E+00    8.0339229162276542E+00    6.2447187112148548E+00
             9.2032577725854523E+00    6.2339550769027872E+00    8.4480005089341468E+00
             6.6509566580920021E+00    7.7746675577145172E+00    8.0137678449136160E+00
             6.3489653768671070E+00    6.7918067843949679E+00    7.0806576415358453E+00
             5.8381505253279835E+00    8.4007534419675949E+00    9.0808870822985490E+00
             8.1378414347171653E+00    6.2892146796056991E+00    9.2875948172123035E+00
             7.5919481256971793E+00    6.0391797541892407E+00    5.3627635703222714E+00
             5.4588597878476310E+00    6.1601302462142593E+00    7.0888938869643718E+00
             6.4734848446240605E+00    8.9001042866231153E+00    9.8323099413106103E+00
             5.2286937149999675E+00    7.6392292327164641E+00    9.5967698012276088E+00
             5.1547216053566780E+00    9.1528992946361569E+00    8.6489404574966819E+00
             7.3957160756847804E+00    5.4854357706096062E+00    9.3357342083609858E+00
             8.0577472145966826E+00    7.0767319809385079E+00    1.0047903668834076E+01
             1.0009677302778194E+01    6.9749038352100623E+00    8.5091209442961429E+00
             9.3699149415163703E+00    5.3838729484019394E+00    7.7787394505370635E+00
       &END COORD
       &VELOCITY
             0.0000000000000000E+00    0.0000000000000000E+00    0.0000000000000000E+00
             0.0000000000000000E+00    0.0000000000000000E+00    0.0000000000000000E+00
             0.0000000000000000E+00    0.0000000000000000E+00    0.0000000000000000E+00
             0.0000000000000000E+00    0.0000000000000000E+00    0.0000000000000000E+00
             0.0000000000000000E+00    0.0000000000000000E+00    0.0000000000000000E+00
             0.0000000000000000E+00    0.0000000000000000E+00    0.0000000000000000E+00
             0.0000000000000000E+00    0.0000000000000000E+00    0.0000000000000000E+00
             0.0000000000000000E+00    0.0000000000000000E+00    0.0000000000000000E+00
             0.0000000000000000E+00    0.0000000000000000E+00    0.0000000000000000E+00
             0.0000000000000000E+00    0.0000000000000000E+00    0.0000000000000000E+00
             0.0000000000000000E+00    0.0000000000000000E+00    0.0000000000000000E+00
             0.0000000000000000E+00    0.0000000000000000E+00    0.0000000000000000E+00
             0.0000000000000000E+00    0.0000000000000000E+00    0.0000000000000000E+00
             0.0000000000000000E+00    0.0000000000000000E+00    0.0000000000000000E+00
             0.0000000000000000E+00    0.0000000000000000E+00    0.0000000000000000E+00
             0.0000000000000000E+00    0.0000000000000000E+00    0.0000000000000000E+00
             0.0000000000000000E+00    0.0000000000000000E+00    0.0000000000000000E+00
             0.0000000000000000E+00    0.0000000000000000E+00    0.0000000000000000E+00
       &END VELOCITY
     &END REPLICA
     &REPLICA
       &COORD
             7.4391664760442389E+00    6.7217707779011677E+00    6.2068048406661838E+00
             8.4052683645210262E+00    7.6039848505074641E+00    6.7336646714367125E+00
             7.8089379747380923E+00    8.4152052656366525E+00    7.6564078537540441E+00
             9.2973532235945733E+00    8.0147514225396819E+00    6.2551567226808684E+00
             9.1452391058078728E+00    6.3134364291980880E+00    8.3412014599243509E+00
             6.7138383617050383E+00    7.7143449394941204E+00    8.0868243647215490E+00
             6.3613375889999775E+00    6.7829248042812562E+00    7.0826127521701929E+00
             5.8506725244316709E+00    8.3860744480504348E+00    9.0909998968197776E+00
             8.0552307473699916E+00    6.3670026990124802E+00    9.2059631270790323E+00
             7.5866804155104584E+00    6.0390140763446167E+00    5.3679470803078759E+00
             5.4621561065018032E+00    6.1624987539048917E+00    7.0864895379514516E+00
             6.4651390356557430E+00    8.9036797329833970E+00    9.8468987495960718E+00
             5.2253291677065361E+00    7.6386537205730551E+00    9.6076688322906403E+00
             5.1800654417336549E+00    9.1281877186245524E+00    8.6198682711567933E+00
             7.3938146409925922E+00    5.5016547737326569E+00    9.3274704026031294E+00
             8.0591962544247551E+00    7.0768168116009260E+00    1.0043540027562951E+01
             1.0003793287363628E+01    6.9753518583776266E+00    8.5092270416779456E+00
             9.3620556602293181E+00    5.4021365326234791E+00    7.7724750893507757E+00
       &END COORD
       &VELOCITY
             0.0000000000000000E+00    0.0000000000000000E+00    0.0000000000000000E+00
             0.0000000000000000E+00    0.0000000000000000E+00    0.0000000000000000E+00
             0.0000000000000000E+00    0.0000000000000000E+00    0.0000000000000000E+00
             0.0000000000000000E+00    0.0000000000000000E+00    0.0000000000000000E+00
             0.0000000000000000E+00    0.0000000000000000E+00    0.0000000000000000E+00
             0.0000000000000000E+00    0.0000000000000000E+00    0.0000000000000000E+00
             0.0000000000000000E+00    0.0000000000000000E+00    0.0000000000000000E+00
             0.0000000000000000E+00    0.0000000000000000E+00    0.0000000000000000E+00
             0.0000000000000000E+00    0.0000000000000000E+00    0.0000000000000000E+00
             0.0000000000000000E+00    0.0000000000000000E+00    0.0000000000000000E+00
             0.0000000000000000E+00    0.0000000000000000E+00    0.0000000000000000E+00
             0.0000000000000000E+00    0.0000000000000000E+00    0.0000000000000000E+00
             0.0000000000000000E+00    0.0000000000000000E+00    0.0000000000000000E+00
             0.0000000000000000E+00    0.0000000000000000E+00    0.0000000000000000E+00
             0.0000000000000000E+00    0.0000000000000000E+00    0.0000000000000000E+00
             0.0000000000000000E+00    0.0000000000000000E+00    0.0000000000000000E+00
             0.0000000000000000E+00    0.0000000000000000E+00    0.0000000000000000E+00
             0.0000000000000000E+00    0.0000000000000000E+00    0.0000000000000000E+00
       &END VELOCITY
     &END REPLICA
     &REPLICA
       &COORD
             7.4301383063878461E+00    6.7119116989107006E+00    6.2141244467304109E+00
             8.4613975633256171E+00    7.5374509592804930E+00    6.8200476999883239E+00
             7.8093313025584843E+00    8.4291777130398753E+00    7.6544704523207034E+00
             9.2900463130789284E+00    8.0009368729793700E+00    6.2630494813912145E+00
             9.1053409783818910E+00    6.3898517019911711E+00    8.2356940678443689E+00
             6.7757218393060938E+00    7.6525330303664294E+00    8.1594990188557652E+00
             6.3677979362342629E+00    6.7738350161927121E+00    7.0742768693875027E+00
             5.8588212075962494E+00    8.3747989366215663E+00    9.0948239223841032E+00
             7.9683191121232797E+00    6.4436900103917871E+00    9.1429653866426772E+00
             7.5809850438212463E+00    6.0400845432195744E+00    5.3656584252555151E+00
             5.4600559535660764E+00    6.1640902909438910E+00    7.0796381590300914E+00
             6.4616167980209216E+00    8.9048073932252620E+00    9.8517885067510793E+00
             5.2223102126120562E+00    7.6389612366419088E+00    9.6135405295430889E+00
             5.1947113043802524E+00    9.1146433327374474E+00    8.6057709867488477E+00
             7.4022771947251531E+00    5.5151470859451104E+00    9.3247647192604237E+00
             8.0689880474475366E+00    7.0677064259472742E+00    1.0044512841448796E+01
             9.9994010395268464E+00    6.9665470301196271E+00    8.5180913594189160E+00
             9.3567183792354012E+00    5.4176511681553832E+00    7.7790886036787565E+00
       &END COORD
       &VELOCITY
             0.0000000000000000E+00    0.0000000000000000E+00    0.0000000000000000E+00
             0.0000000000000000E+00    0.0000000000000000E+00    0.0000000000000000E+00
             0.0000000000000000E+00    0.0000000000000000E+00    0.0000000000000000E+00
             0.0000000000000000E+00    0.0000000000000000E+00    0.0000000000000000E+00
             0.0000000000000000E+00    0.0000000000000000E+00    0.0000000000000000E+00
             0.0000000000000000E+00    0.0000000000000000E+00    0.0000000000000000E+00
             0.0000000000000000E+00    0.0000000000000000E+00    0.0000000000000000E+00
             0.0000000000000000E+00    0.0000000000000000E+00    0.0000000000000000E+00
             0.0000000000000000E+00    0.0000000000000000E+00    0.0000000000000000E+00
             0.0000000000000000E+00    0.0000000000000000E+00    0.0000000000000000E+00
             0.0000000000000000E+00    0.0000000000000000E+00    0.0000000000000000E+00
             0.0000000000000000E+00    0.0000000000000000E+00    0.0000000000000000E+00
             0.0000000000000000E+00    0.0000000000000000E+00    0.0000000000000000E+00
             0.0000000000000000E+00    0.0000000000000000E+00    0.0000000000000000E+00
             0.0000000000000000E+00    0.0000000000000000E+00    0.0000000000000000E+00
             0.0000000000000000E+00    0.0000000000000000E+00    0.0000000000000000E+00
             0.0000000000000000E+00    0.0000000000000000E+00    0.0000000000000000E+00
             0.0000000000000000E+00    0.0000000000000000E+00    0.0000000000000000E+00
       &END VELOCITY
     &END REPLICA
     &REPLICA
       &COORD
             7.4279437045786452E+00    6.6968614311637609E+00    6.2274143861308664E+00
             8.5142539109312700E+00    7.4750150266054822E+00    6.8961160757760878E+00
             7.8153803259239423E+00    8.4329562851542033E+00    7.6594638346136961E+00
             9.2860177525077177E+00    7.9746271728050102E+00    6.2800208115211182E+00
             9.0706964598918560E+00    6.4677805316557642E+00    8.1374703579383159E+00
             6.8352857382877108E+00    7.5884107890457981E+00    8.2328063780062735E+00
             6.3775937677020975E+00    6.7601847061201719E+00    7.0749725619651702E+00
             5.8721594734884803E+00    8.3556445043707193E+00    9.1020913908148273E+00
             7.8810035735205206E+00    6.5271876937800268E+00    9.0841614604817806E+00
             7.5712614634712949E+00    6.0444917964848859E+00    5.3587575939069909E+00
             5.4551156303757367E+00    6.1677537622253418E+00    7.0695336854449389E+00
             6.4571857477663182E+00    8.9061070680824415E+00    9.8589332619312966E+00
             5.2176072262448967E+00    7.6386303565259226E+00    9.6241177512727063E+00
             5.2204165466389405E+00    9.0896645965159202E+00    8.5836687164184404E+00
             7.4078253659821858E+00    5.5461483312128674E+00    9.3098557799753099E+00
             8.0805635195211956E+00    7.0594305223489497E+00    1.0034491368443673E+01
             9.9826280783831347E+00    6.9603531615723435E+00    8.5259788436336894E+00
             9.3404828211790996E+00    5.4488207965602875E+00    7.7816033632434367E+00
       &END COORD
       &VELOCITY
             0.0000000000000000E+00    0.0000000000000000E+00    0.0000000000000000E+00
             0.0000000000000000E+00    0.0000000000000000E+00    0.0000000000000000E+00
             0.0000000000000000E+00    0.0000000000000000E+00    0.0000000000000000E+00
             0.0000000000000000E+00    0.0000000000000000E+00    0.0000000000000000E+00
             0.0000000000000000E+00    0.0000000000000000E+00    0.0000000000000000E+00
             0.0000000000000000E+00    0.0000000000000000E+00    0.0000000000000000E+00
             0.0000000000000000E+00    0.0000000000000000E+00    0.0000000000000000E+00
             0.0000000000000000E+00    0.0000000000000000E+00    0.0000000000000000E+00
             0.0000000000000000E+00    0.0000000000000000E+00    0.0000000000000000E+00
             0.0000000000000000E+00    0.0000000000000000E+00    0.0000000000000000E+00
             0.0000000000000000E+00    0.0000000000000000E+00    0.0000000000000000E+00
             0.0000000000000000E+00    0.0000000000000000E+00    0.0000000000000000E+00
             0.0000000000000000E+00    0.0000000000000000E+00    0.0000000000000000E+00
             0.0000000000000000E+00    0.0000000000000000E+00    0.0000000000000000E+00
             0.0000000000000000E+00    0.0000000000000000E+00    0.0000000000000000E+00
             0.0000000000000000E+00    0.0000000000000000E+00    0.0000000000000000E+00
             0.0000000000000000E+00    0.0000000000000000E+00    0.0000000000000000E+00
             0.0000000000000000E+00    0.0000000000000000E+00    0.0000000000000000E+00
       &END VELOCITY
     &END REPLICA
     &REPLICA
       &COORD
             7.4303798841784561E+00    6.6663043539976874E+00    6.2513797086746017E+00
             8.5385226958732865E+00    7.4348240311366869E+00    6.9352395483653995E+00
             7.8244556483651566E+00    8.4299058120322599E+00    7.6657845542781695E+00
             9.3091203941622958E+00    7.9030319739108847E+00    6.3046389346561726E+00
             9.0448364122614002E+00    6.5197095630462414E+00    8.0888667802460148E+00
             6.8765126414004811E+00    7.5459937981171725E+00    8.2849176704356111E+00
             6.3875892061548250E+00    6.7330437094359556E+00    7.1013382793692470E+00
             5.8928004988227407E+00    8.3135393833322588E+00    9.1191552382173882E+00
             7.8432312654517276E+00    6.5891563768757413E+00    9.0530712423158732E+00
             7.5323092302362848E+00    6.0679463343150353E+00    5.3410130783322343E+00
             5.4334801689656373E+00    6.1984428882820017E+00    7.0494244755742441E+00
             6.4366910061271350E+00    8.9034658472362302E+00    9.8784609074452359E+00
             5.2079892007982966E+00    7.6237590497866288E+00    9.6424995981576718E+00
             5.2891711611311747E+00    9.0069900922514066E+00    8.5074428695288660E+00
             7.3895902026758469E+00    5.6067804160199790E+00    9.2725630108125774E+00
             8.1189833770471047E+00    7.0629738928577090E+00    1.0012401313927390E+01
             9.9490674982885139E+00    6.9627606724610711E+00    8.5401953530612058E+00
             9.2925508428538119E+00    5.4967744132717584E+00    7.7556391612787641E+00
       &END COORD
       &VELOCITY
             0.0000000000000000E+00    0.0000000000000000E+00    0.0000000000000000E+00
             0.0000000000000000E+00    0.0000000000000000E+00    0.0000000000000000E+00
             0.0000000000000000E+00    0.0000000000000000E+00    0.0000000000000000E+00
             0.0000000000000000E+00    0.0000000000000000E+00    0.0000000000000000E+00
             0.0000000000000000E+00    0.0000000000000000E+00    0.0000000000000000E+00
             0.0000000000000000E+00    0.0000000000000000E+00    0.0000000000000000E+00
             0.0000000000000000E+00    0.0000000000000000E+00    0.0000000000000000E+00
             0.0000000000000000E+00    0.0000000000000000E+00    0.0000000000000000E+00
             0.0000000000000000E+00    0.0000000000000000E+00    0.0000000000000000E+00
             0.0000000000000000E+00    0.0000000000000000E+00    0.0000000000000000E+00