 # Version information for this restart file 
 # current date 2022-06-16 11:05:41.211
 # current working dir /work/hpc/users/wnw36/MSU-DFT-Catalysis-School/5_NEB/2_Diels-Alder
 # Program compiled at                              Mon May 23 16:32:41 CDT 2022
 # Program compiled on                             Orion-devel-1.HPC.MsState.Edu
 # Program compiled for                                  Linux-x86-64-intel-hpc2
 # Source code revision number                                       git:d8d7100
 &GLOBAL
   PRINT_LEVEL  MEDIUM
   PROJECT_NAME Diels-Alder-r-0
   OUTPUT_FILE_NAME Diels-Alder-r-0.out
   RUN_TYPE  BAND
   WALLTIME 47:58:00
 &END GLOBAL
 &MOTION
   &BAND
     NPROC_REP  12
     BAND_TYPE  CI-NEB
     NUMBER_OF_REPLICA  10
     ROTATE_FRAMES  T
     ALIGN_FRAMES  T
     K_SPRING     5.0000000000000003E-02
     &CONVERGENCE_CONTROL
       MAX_DR     1.0000000000000000E-03
       MAX_FORCE     1.0000000000000000E-03
       RMS_DR     5.0000000000000001E-03
       RMS_FORCE     5.0000000000000001E-03
     &END CONVERGENCE_CONTROL
     &CI_NEB
       NSTEPS_IT  5
     &END CI_NEB
     &OPTIMIZE_BAND
       OPT_TYPE  DIIS
       OPTIMIZE_END_POINTS  F
       &DIIS
         MAX_STEPS  400
       &END DIIS
     &END OPTIMIZE_BAND
     &REPLICA
       &COORD
             7.3629150000000125E+00    6.8025800000000141E+00    6.1148800000000110E+00
             8.2334820097000154E+00    7.7879118505000093E+00    6.5113178957000137E+00
             7.7379631168000111E+00    8.4421429294000188E+00    7.5939733998000110E+00
             9.1891269845000210E+00    8.1471716695000218E+00    6.1280166441000068E+00
             9.3792030766000174E+00    6.0351017222000136E+00    8.6188423547000266E+00
             6.5584376089000092E+00    7.8514733810000106E+00    7.9308262290000116E+00
             6.2741561796000145E+00    6.8456748071000098E+00    7.0348359464000145E+00
             5.8161985998000079E+00    8.4192308110000198E+00    9.0794824339000133E+00
             8.3462195928000291E+00    6.0871051940000171E+00    9.4785677268000299E+00
             7.4955795001000078E+00    6.1224053217000165E+00    5.2717930157000072E+00
             5.3859254853000040E+00    6.2111438670000094E+00    7.0590097755000105E+00
             6.4999481717000140E+00    8.6726936524000120E+00    9.9088129137000180E+00
             5.0827251906000024E+00    7.6830341484000115E+00    9.4472840536000238E+00
             5.2642530375000076E+00    9.3375835181000095E+00    8.8036806732000219E+00
             7.5523890468000205E+00    5.3296113547000132E+00    9.4720174461000060E+00
             8.2656682135000246E+00    6.8894294916000129E+00    1.0224785081900022E+01
             1.0172648623000018E+01    6.7940130141000115E+00    8.6326527437000173E+00
             9.4684698855000082E+00    5.2344390081000052E+00    7.8741179792000189E+00
       &END COORD
       &VELOCITY
             0.0000000000000000E+00    0.0000000000000000E+00    0.0000000000000000E+00
             0.0000000000000000E+00    0.0000000000000000E+00    0.0000000000000000E+00
             0.0000000000000000E+00    0.0000000000000000E+00    0.0000000000000000E+00
             0.0000000000000000E+00    0.0000000000000000E+00    0.0000000000000000E+00
             0.0000000000000000E+00    0.0000000000000000E+00    0.0000000000000000E+00
             0.0000000000000000E+00    0.0000000000000000E+00    0.0000000000000000E+00
             0.0000000000000000E+00    0.0000000000000000E+00    0.0000000000000000E+00
             0.0000000000000000E+00    0.0000000000000000E+00    0.0000000000000000E+00
             0.0000000000000000E+00    0.0000000000000000E+00    0.0000000000000000E+00
             0.0000000000000000E+00    0.0000000000000000E+00    0.0000000000000000E+00
             0.0000000000000000E+00    0.0000000000000000E+00    0.0000000000000000E+00
             0.0000000000000000E+00    0.0000000000000000E+00    0.0000000000000000E+00
             0.0000000000000000E+00    0.0000000000000000E+00    0.0000000000000000E+00
             0.0000000000000000E+00    0.0000000000000000E+00    0.0000000000000000E+00
             0.0000000000000000E+00    0.0000000000000000E+00    0.0000000000000000E+00
             0.0000000000000000E+00    0.0000000000000000E+00    0.0000000000000000E+00
             0.0000000000000000E+00    0.0000000000000000E+00    0.0000000000000000E+00
             0.0000000000000000E+00    0.0000000000000000E+00    0.0000000000000000E+00
       &END VELOCITY
     &END REPLICA
     &REPLICA
       &COORD
             7.3724386719029491E+00    6.7803871655479391E+00    6.1060887039972744E+00
             8.2401512046039223E+00    7.7680876698880086E+00    6.5037499789265230E+00
             7.7373890623258337E+00    8.4307975175973624E+00    7.5772245536593577E+00
             9.1945334189415728E+00    8.1298635137156374E+00    6.1213735650254328E+00
             9.3529110754338536E+00    6.0729336489086485E+00    8.6226642175731705E+00
             6.5583992503120081E+00    7.8388906504356886E+00    7.9142120576754440E+00
             6.2824195651668688E+00    6.8244213685971129E+00    7.0229899142683054E+00
             5.8167400304978480E+00    8.4242538832158491E+00    9.0542130114077413E+00
             8.2984192358475521E+00    6.1300700723338215E+00    9.4566491610762906E+00
             7.5143439387793354E+00    6.0951396847028994E+00    5.2689251445490743E+00
             5.3996079382916689E+00    6.1828750539587762E+00    7.0403348871908928E+00
             6.5151209174538192E+00    8.7709814973872895E+00    9.8358593793082214E+00
             5.1466886611204119E+00    7.6701194755969446E+00    9.4988006328140653E+00
             5.1991098549414296E+00    9.2895756924707147E+00    8.7476374207096388E+00
             7.5324836445063488E+00    5.3444916975042274E+00    9.4725126316886570E+00
             8.1678834726463112E+00    6.9668419924441993E+00    1.0156537044090099E+01
             1.0116610954175362E+01    6.8616672435253454E+00    8.6111939025682194E+00
             9.4893296772507387E+00    5.2383579793025818E+00    7.9235265303359226E+00
       &END COORD
       &VELOCITY
             0.0000000000000000E+00    0.0000000000000000E+00    0.0000000000000000E+00
             0.0000000000000000E+00    0.0000000000000000E+00    0.0000000000000000E+00
             0.0000000000000000E+00    0.0000000000000000E+00    0.0000000000000000E+00
             0.0000000000000000E+00    0.0000000000000000E+00    0.0000000000000000E+00
             0.0000000000000000E+00    0.0000000000000000E+00    0.0000000000000000E+00
             0.0000000000000000E+00    0.0000000000000000E+00    0.0000000000000000E+00
             0.0000000000000000E+00    0.0000000000000000E+00    0.0000000000000000E+00
             0.0000000000000000E+00    0.0000000000000000E+00    0.0000000000000000E+00
             0.0000000000000000E+00    0.0000000000000000E+00    0.0000000000000000E+00
             0.0000000000000000E+00    0.0000000000000000E+00    0.0000000000000000E+00
             0.0000000000000000E+00    0.0000000000000000E+00    0.0000000000000000E+00
             0.0000000000000000E+00    0.0000000000000000E+00    0.0000000000000000E+00
             0.0000000000000000E+00    0.0000000000000000E+00    0.0000000000000000E+00
             0.0000000000000000E+00    0.0000000000000000E+00    0.0000000000000000E+00
             0.0000000000000000E+00    0.0000000000000000E+00    0.0000000000000000E+00
             0.0000000000000000E+00    0.0000000000000000E+00    0.0000000000000000E+00
             0.0000000000000000E+00    0.0000000000000000E+00    0.0000000000000000E+00
             0.0000000000000000E+00    0.0000000000000000E+00    0.0000000000000000E+00
       &END VELOCITY
     &END REPLICA
     &REPLICA
       &COORD
             7.3973329017134075E+00    6.7607190246837261E+00    6.1244466550898258E+00
             8.2602742467967190E+00    7.7534312517508885E+00    6.5223397888820847E+00
             7.7411893319003378E+00    8.4318538566813022E+00    7.5776370229362264E+00
             9.2217016366778886E+00    8.1075496567258138E+00    6.1505140842213413E+00
             9.3096495579095464E+00    6.1219862619178098E+00    8.5956460951363649E+00
             6.5645919887245494E+00    7.8356523183443478E+00    7.9137431980937585E+00
             6.2989077943487821E+00    6.8122663370015841E+00    7.0284743800751004E+00
             5.8103632393715845E+00    8.4266592049578719E+00    9.0431677896768576E+00
             8.2475278499081721E+00    6.1790225309389193E+00    9.4210425841973713E+00
             7.5538221397727670E+00    6.0613845413774268E+00    5.3017032492999290E+00
             5.4207320009517108E+00    6.1644984471412094E+00    7.0488704311624630E+00
             6.5019790687220826E+00    8.8654569460883828E+00    9.7830663194354326E+00
             5.2112668478121282E+00    7.6513681870638175E+00    9.5492935834994128E+00
             5.1215304976814666E+00    9.2251644027061594E+00    8.7098774374021026E+00
             7.4836418241263276E+00    5.3915873223797961E+00    9.4351351905251910E+00
             8.1058268630007309E+00    7.0208385469099914E+00    1.0112495024743161E+01
             1.0067509103715269E+01    6.9162106245075980E+00    8.5837022407842891E+00
             9.4560263581500532E+00    5.2857826113725856E+00    7.9008076080261569E+00
       &END COORD
       &VELOCITY
             0.0000000000000000E+00    0.0000000000000000E+00    0.0000000000000000E+00
             0.0000000000000000E+00    0.0000000000000000E+00    0.0000000000000000E+00
             0.0000000000000000E+00    0.0000000000000000E+00    0.0000000000000000E+00
             0.0000000000000000E+00    0.0000000000000000E+00    0.0000000000000000E+00
             0.0000000000000000E+00    0.0000000000000000E+00    0.0000000000000000E+00
             0.0000000000000000E+00    0.0000000000000000E+00    0.0000000000000000E+00
             0.0000000000000000E+00    0.0000000000000000E+00    0.0000000000000000E+00
             0.0000000000000000E+00    0.0000000000000000E+00    0.0000000000000000E+00
             0.0000000000000000E+00    0.0000000000000000E+00    0.0000000000000000E+00
             0.0000000000000000E+00    0.0000000000000000E+00    0.0000000000000000E+00
             0.0000000000000000E+00    0.0000000000000000E+00    0.0000000000000000E+00
             0.0000000000000000E+00    0.0000000000000000E+00    0.0000000000000000E+00
             0.0000000000000000E+00    0.0000000000000000E+00    0.0000000000000000E+00
             0.0000000000000000E+00    0.0000000000000000E+00    0.0000000000000000E+00
             0.0000000000000000E+00    0.0000000000000000E+00    0.0000000000000000E+00
             0.0000000000000000E+00    0.0000000000000000E+00    0.0000000000000000E+00
             0.0000000000000000E+00    0.0000000000000000E+00    0.0000000000000000E+00
             0.0000000000000000E+00    0.0000000000000000E+00    0.0000000000000000E+00
       &END VELOCITY
     &END REPLICA
     &REPLICA
       &COORD
             7.4263686959016653E+00    6.7454584566059923E+00    6.1615543139169020E+00
             8.2965061438800181E+00    7.7299164949985801E+00    6.5706869624502779E+00
             7.7625845349357760E+00    8.4278752637369063E+00    7.6047860017248121E+00
             9.2656286182996990E+00    8.0717667776144797E+00    6.2075878458902736E+00
             9.2589855909849827E+00    6.1716472941187357E+00    8.5316395579162041E+00
             6.5953401198464245E+00    7.8201039116084070E+00    7.9496696084726146E+00
             6.3259814630304279E+00    6.8018022743856781E+00    7.0570849110698770E+00
             5.8199894944763635E+00    8.4187695922372985E+00    9.0600754122199252E+00
             8.1984787191770234E+00    6.2284907830842995E+00    9.3625723369149529E+00
             7.5873931826259255E+00    6.0415427258607917E+00    5.3439675513760907E+00
             5.4469021519761389E+00    6.1556275546629715E+00    7.0774604094428941E+00
             6.4868716675509255E+00    8.8923398935306253E+00    9.8012554237986720E+00
             5.2291511287174819E+00    7.6432946933673431E+00    9.5765029835085880E+00
             5.1209826777648999E+00    9.1893669480801652E+00    8.6877779110513345E+00
             7.4270971053514270E+00    5.4491265956983401E+00    9.3727794551649346E+00
             8.0751830173190982E+00    7.0557926213319782E+00    1.0074159145182213E+01
             1.0030831327751272E+01    6.9520234411415025E+00    8.5378549655063765E+00
             9.3985881244100611E+00    5.3447631879390798E+00    7.8253455188432888E+00
       &END COORD
       &VELOCITY
             0.0000000000000000E+00    0.0000000000000000E+00    0.0000000000000000E+00
             0.0000000000000000E+00    0.0000000000000000E+00    0.0000000000000000E+00
             0.0000000000000000E+00    0.0000000000000000E+00    0.0000000000000000E+00
             0.0000000000000000E+00    0.0000000000000000E+00    0.0000000000000000E+00
             0.0000000000000000E+00    0.0000000000000000E+00    0.0000000000000000E+00
             0.0000000000000000E+00    0.0000000000000000E+00    0.0000000000000000E+00
             0.0000000000000000E+00    0.0000000000000000E+00    0.0000000000000000E+00
             0.0000000000000000E+00    0.0000000000000000E+00    0.0000000000000000E+00
             0.0000000000000000E+00    0.0000000000000000E+00    0.0000000000000000E+00
             0.0000000000000000E+00    0.0000000000000000E+00    0.0000000000000000E+00
             0.0000000000000000E+00    0.0000000000000000E+00    0.0000000000000000E+00
             0.0000000000000000E+00    0.0000000000000000E+00    0.0000000000000000E+00
             0.0000000000000000E+00    0.0000000000000000E+00    0.0000000000000000E+00
             0.0000000000000000E+00    0.0000000000000000E+00    0.0000000000000000E+00
             0.0000000000000000E+00    0.0000000000000000E+00    0.0000000000000000E+00
             0.0000000000000000E+00    0.0000000000000000E+00    0.0000000000000000E+00
             0.0000000000000000E+00    0.0000000000000000E+00    0.0000000000000000E+00
             0.0000000000000000E+00    0.0000000000000000E+00    0.0000000000000000E+00
       &END VELOCITY
     &END REPLICA
     &REPLICA
       &COORD
             7.4420383161104873E+00    6.7325147676034875E+00    6.1916175712936106E+00
             8.3477282355040501E+00    7.6756326982167886E+00    6.6444765486180355E+00
             7.7979762369093955E+00    8.4094572000791619E+00    7.6465617784481763E+00
             9.2958063922903911E+00    8.0339457960600296E+00    6.2447756670482590E+00
             9.2033098489177441E+00    6.2339848215302833E+00    8.4480252612378113E+00
             6.6508974438274420E+00    7.7746230737829931E+00    8.0137348386091478E+00
             6.3489732847782907E+00    6.7918204431375013E+00    7.0806802268927793E+00
             5.8382405609716681E+00    8.4006779944312076E+00    9.0809342462827232E+00
             8.1378531181615283E+00    6.2892163137631041E+00    9.2876249157788013E+00
             7.5920182579937396E+00    6.0391083653546946E+00    5.3627447702129363E+00
             5.4589013323839364E+00    6.1601335418705974E+00    7.0889115960402167E+00
             6.4735032719450150E+00    8.9001078193662568E+00    9.8323289545966173E+00
             5.2286673202032334E+00    7.6392816654931526E+00    9.5967507712595648E+00
             5.1547020851957237E+00    9.1530252678217270E+00    8.6489193972909959E+00
             7.3957091731844473E+00    5.4854040339026087E+00    9.3357041694358998E+00
             8.0577880504579902E+00    7.0766339256895741E+00    1.0047923891692438E+01
             1.0009688630453187E+01    6.9748480559884012E+00    8.5091434567008779E+00
             9.3699150071579602E+00    5.3838443813484576E+00    7.7786761233650363E+00
       &END COORD
       &VELOCITY
             0.0000000000000000E+00    0.0000000000000000E+00    0.0000000000000000E+00
             0.0000000000000000E+00    0.0000000000000000E+00    0.0000000000000000E+00
             0.0000000000000000E+00    0.0000000000000000E+00    0.0000000000000000E+00
             0.0000000000000000E+00    0.0000000000000000E+00    0.0000000000000000E+00
             0.0000000000000000E+00    0.0000000000000000E+00    0.0000000000000000E+00
             0.0000000000000000E+00    0.0000000000000000E+00    0.0000000000000000E+00
             0.0000000000000000E+00    0.0000000000000000E+00    0.0000000000000000E+00
             0.0000000000000000E+00    0.0000000000000000E+00    0.0000000000000000E+00
             0.0000000000000000E+00    0.0000000000000000E+00    0.0000000000000000E+00
             0.0000000000000000E+00    0.0000000000000000E+00    0.0000000000000000E+00
             0.0000000000000000E+00    0.0000000000000000E+00    0.0000000000000000E+00
             0.0000000000000000E+00    0.0000000000000000E+00    0.0000000000000000E+00
             0.0000000000000000E+00    0.0000000000000000E+00    0.0000000000000000E+00
             0.0000000000000000E+00    0.0000000000000000E+00    0.0000000000000000E+00
             0.0000000000000000E+00    0.0000000000000000E+00    0.0000000000000000E+00
             0.0000000000000000E+00    0.0000000000000000E+00    0.0000000000000000E+00
             0.0000000000000000E+00    0.0000000000000000E+00    0.0000000000000000E+00
             0.0000000000000000E+00    0.0000000000000000E+00    0.0000000000000000E+00
       &END VELOCITY
     &END REPLICA
     &REPLICA
       &COORD
             7.4391844677153038E+00    6.7218807619685839E+00    6.2069824411527996E+00
             8.4053130244085903E+00    7.6039732143255829E+00    6.7336637412156923E+00
             7.8089428179274867E+00    8.4152354711165636E+00    7.6564355886786535E+00
             9.2973674273553950E+00    8.0147651124072876E+00    6.2552128035587238E+00
             9.1452368902257799E+00    6.3134282040124567E+00    8.3412123870139325E+00
             6.7138320605297626E+00    7.7143290031242495E+00    8.0867877436255142E+00
             6.3613291675067130E+00    6.7829428315851832E+00    7.0826376768547812E+00
             5.8507153835808179E+00    8.3860460294446177E+00    9.0910106714817243E+00
             8.0552552086944527E+00    6.3670075536492678E+00    9.2059494107449158E+00
             7.5867464695086060E+00    6.0389329889462422E+00    5.3679163484683396E+00
             5.4622030130006536E+00    6.1625032938541890E+00    7.0865080663181104E+00
             6.4651677148342790E+00    8.9036910776197189E+00    9.8469342387288616E+00
             5.2252979789594391E+00    7.6386915510304929E+00    9.6076635843981641E+00
             5.1800879993758020E+00    9.1282702219792373E+00    8.6198606527089225E+00
             7.3938042460194344E+00    5.5016155464303580E+00    9.3274408182104018E+00
             8.0592266966345889E+00    7.0767486110914311E+00    1.0043571833168622E+01
             1.0003831401229542E+01    6.9753304264145921E+00    8.5092473943219442E+00
             9.3620582035912303E+00    5.4021322293056366E+00    7.7724267694335447E+00
       &END COORD
       &VELOCITY
             0.0000000000000000E+00    0.0000000000000000E+00    0.0000000000000000E+00
             0.0000000000000000E+00    0.0000000000000000E+00    0.0000000000000000E+00
             0.0000000000000000E+00    0.0000000000000000E+00    0.0000000000000000E+00
             0.0000000000000000E+00    0.0000000000000000E+00    0.0000000000000000E+00
             0.0000000000000000E+00    0.0000000000000000E+00    0.0000000000000000E+00
             0.0000000000000000E+00    0.0000000000000000E+00    0.0000000000000000E+00
             0.0000000000000000E+00    0.0000000000000000E+00    0.0000000000000000E+00
             0.0000000000000000E+00    0.0000000000000000E+00    0.0000000000000000E+00
             0.0000000000000000E+00    0.0000000000000000E+00    0.0000000000000000E+00
             0.0000000000000000E+00    0.0000000000000000E+00    0.0000000000000000E+00
             0.0000000000000000E+00    0.0000000000000000E+00    0.0000000000000000E+00
             0.0000000000000000E+00    0.0000000000000000E+00    0.0000000000000000E+00
             0.0000000000000000E+00    0.0000000000000000E+00    0.0000000000000000E+00
             0.0000000000000000E+00    0.0000000000000000E+00    0.0000000000000000E+00
             0.0000000000000000E+00    0.0000000000000000E+00    0.0000000000000000E+00
             0.0000000000000000E+00    0.0000000000000000E+00    0.0000000000000000E+00
             0.0000000000000000E+00    0.0000000000000000E+00    0.0000000000000000E+00
             0.0000000000000000E+00    0.0000000000000000E+00    0.0000000000000000E+00
       &END VELOCITY
     &END REPLICA
     &REPLICA
       &COORD
             7.4301691958235727E+00    6.7120376227523444E+00    6.2142832531605512E+00
             8.4614337158097328E+00    7.5374470718594067E+00    6.8201125662808284E+00
             7.8093433291333714E+00    8.4291313425622381E+00    7.6544830764802931E+00
             9.2900776148487569E+00    8.0009419024499380E+00    6.2631125685454085E+00
             9.1053291165919550E+00    6.3899472215766577E+00    8.2356700402881309E+00
             6.7757773565786694E+00    7.6525302517543254E+00    8.1594963643721368E+00
             6.3677633800587907E+00    6.7738490267015967E+00    7.0743007595389029E+00
             5.8588494208856137E+00    8.3747826884078389E+00    9.0948341772604575E+00
             7.9683003275220647E+00    6.4437776752281808E+00    9.1429329971251025E+00
             7.5810362153147652E+00    6.0400111965052554E+00    5.3656376321453632E+00
             5.4601320989496225E+00    6.1640934123820470E+00    7.0796661780529400E+00
             6.4616410457056634E+00    8.9048274640210661E+00    9.8518282456583037E+00
             5.2222811691738045E+00    7.6389950807429479E+00    9.6135339577809873E+00
             5.1947540816466198E+00    9.1147006589725095E+00    8.6057599794867130E+00
             7.4022623064780131E+00    5.5150589445044513E+00    9.3247507900979727E+00
             8.0690044812781228E+00    7.0676405501016397E+00    1.0044513281999079E+01
             9.9994148299660122E+00    6.9665212576465310E+00    8.5181034514165752E+00
             9.3567410459530578E+00    5.4175853627022352E+00    7.7790320002164659E+00
       &END COORD
       &VELOCITY
             0.0000000000000000E+00    0.0000000000000000E+00    0.0000000000000000E+00
             0.0000000000000000E+00    0.0000000000000000E+00    0.0000000000000000E+00
             0.0000000000000000E+00    0.0000000000000000E+00    0.0000000000000000E+00
             0.0000000000000000E+00    0.0000000000000000E+00    0.0000000000000000E+00
             0.0000000000000000E+00    0.0000000000000000E+00    0.0000000000000000E+00
             0.0000000000000000E+00    0.0000000000000000E+00    0.0000000000000000E+00
             0.0000000000000000E+00    0.0000000000000000E+00    0.0000000000000000E+00
             0.0000000000000000E+00    0.0000000000000000E+00    0.0000000000000000E+00
             0.0000000000000000E+00    0.0000000000000000E+00    0.0000000000000000E+00
             0.0000000000000000E+00    0.0000000000000000E+00    0.0000000000000000E+00
             0.0000000000000000E+00    0.0000000000000000E+00    0.0000000000000000E+00
             0.0000000000000000E+00    0.0000000000000000E+00    0.0000000000000000E+00
             0.0000000000000000E+00    0.0000000000000000E+00    0.0000000000000000E+00
             0.0000000000000000E+00    0.0000000000000000E+00    0.0000000000000000E+00
             0.0000000000000000E+00    0.0000000000000000E+00    0.0000000000000000E+00
             0.0000000000000000E+00    0.0000000000000000E+00    0.0000000000000000E+00
             0.0000000000000000E+00    0.0000000000000000E+00    0.0000000000000000E+00
             0.0000000000000000E+00    0.0000000000000000E+00    0.0000000000000000E+00
       &END VELOCITY
     &END REPLICA
     &REPLICA
       &COORD
             7.4290097517967348E+00    6.6965347388818008E+00    6.2263021303847710E+00
             8.5141779481155577E+00    7.4749969386997117E+00    6.8964392502439020E+00
             7.8154597673204940E+00    8.4330112743505055E+00    7.6595665965468918E+00
             9.2860678366575389E+00    7.9746909897420926E+00    6.2799972206320325E+00
             9.0706892100187719E+00    6.4679196862330706E+00    8.1372466018626550E+00
             6.8355380368774306E+00    7.5884353106951847E+00    8.2327287793129944E+00
             6.3760476488936995E+00    6.7599232166834220E+00    7.0757002391934449E+00
             5.8720859220122810E+00    8.3556733833447456E+00    9.1021507132355293E+00
             7.8808605283878324E+00    6.5272594726888080E+00    9.0841301448033960E+00
             7.5713047860965039E+00    6.0446612980185979E+00    5.3593190885315281E+00
             5.4556373464171690E+00    6.1680738544802640E+00    7.0694977300910065E+00
             6.4572352574571985E+00    8.9060804862731775E+00    9.8590173493621620E+00
             5.2175630484867357E+00    7.6386674442437776E+00    9.6240660450380258E+00
             5.2204739805889400E+00    9.0897669744711518E+00    8.5837851467604587E+00
             7.4078751998994070E+00    5.5460962718044238E+00    9.3098566475172166E+00
             8.0806002958287948E+00    7.0592616514925366E+00    1.0034481568158533E+01
             9.9826658671164576E+00    6.9601870642354990E+00    8.5259650530847253E+00
             9.3404726837016661E+00    5.4488171587057703E+00    7.7815032351113818E+00
       &END COORD
       &VELOCITY
             0.0000000000000000E+00    0.0000000000000000E+00    0.0000000000000000E+00
             0.0000000000000000E+00    0.0000000000000000E+00    0.0000000000000000E+00
             0.0000000000000000E+00    0.0000000000000000E+00    0.0000000000000000E+00
             0.0000000000000000E+00    0.0000000000000000E+00    0.0000000000000000E+00
             0.0000000000000000E+00    0.0000000000000000E+00    0.0000000000000000E+00
             0.0000000000000000E+00    0.0000000000000000E+00    0.0000000000000000E+00
             0.0000000000000000E+00    0.0000000000000000E+00    0.0000000000000000E+00
             0.0000000000000000E+00    0.0000000000000000E+00    0.0000000000000000E+00
             0.0000000000000000E+00    0.0000000000000000E+00    0.0000000000000000E+00
             0.0000000000000000E+00    0.0000000000000000E+00    0.0000000000000000E+00
             0.0000000000000000E+00    0.0000000000000000E+00    0.0000000000000000E+00
             0.0000000000000000E+00    0.0000000000000000E+00    0.0000000000000000E+00
             0.0000000000000000E+00    0.0000000000000000E+00    0.0000000000000000E+00
             0.0000000000000000E+00    0.0000000000000000E+00    0.0000000000000000E+00
             0.0000000000000000E+00    0.0000000000000000E+00    0.0000000000000000E+00
             0.0000000000000000E+00    0.0000000000000000E+00    0.0000000000000000E+00
             0.0000000000000000E+00    0.0000000000000000E+00    0.0000000000000000E+00
             0.0000000000000000E+00    0.0000000000000000E+00    0.0000000000000000E+00
       &END VELOCITY
     &END REPLICA
     &REPLICA
       &COORD
             7.4306291195666621E+00    6.6663471217704133E+00    6.2514803244113510E+00
             8.5385192138999759E+00    7.4348420664123784E+00    6.9352315592209113E+00
             7.8244543152055055E+00    8.4298875907178701E+00    7.6657278144290473E+00
             9.3092063020019928E+00    7.9028851715251411E+00    6.3047134085213665E+00
             9.0448202909222211E+00    6.5197246696836695E+00    8.0889050856121862E+00
             6.8765060757000436E+00    7.5460931502694946E+00    8.2850145129873862E+00
             6.3875182819365932E+00    6.7330216392211035E+00    7.1015479255837937E+00
             5.8928122677226416E+00    8.3134511068137922E+00    9.1192303633557366E+00
             7.8433363048906966E+00    6.5891881342690120E+00    9.0530740228018534E+00
             7.5322557077029666E+00    6.0679261172590646E+00    5.3409135474596603E+00
             5.4334350604635029E+00    6.1984945424335764E+00    7.0494143820307560E+00
             6.4366463379921743E+00    8.9034241759412787E+00    9.8784959009074509E+00
             5.2079936619842337E+00    7.6237563874008858E+00    9.6425053283622457E+00
             5.2893859294677759E+00    9.0068064184575043E+00    8.5072753028223698E+00
             7.3895022764459153E+00    5.6068447304885645E+00    9.2724832930724688E+00
             8.1190776509745977E+00    7.0629716836453733E+00    1.0012391948924691E+01
             9.9490197081401774E+00    6.9627711198459483E+00    8.5402557329419277E+00
             9.2924610350984178E+00    5.4968255900374254E+00    7.7555526946927698E+00
       &END COORD
       &VELOCITY
             0.0000000000000000E+00    0.0000000000000000E+00    0.0000000000000000E+00
             0.0000000000000000E+00    0.0000000000000000E+00    0.0000000000000000E+00
             0.0000000000000000E+00    0.0000000000000000E+00    0.0000000000000000E+00
             0.0000000000000000E+00    0.0000000000000000E+00    0.0000000000000000E+00
             0.0000000000000000E+00    0.0000000000000000E+00    0.0000000000000000E+00
             0.0000000000000000E+00    0.0000000000000000E+00    0.0000000000000000E+00
             0.0000000000000000E+00    0.0000000000000000E+00    0.0000000000000000E+00
             0.0000000000000000E+00    0.0000000000000000E+00    0.0000000000000000E+00
             0.0000000000000000E+00    0.0000000000000000E+00    0.0000000000000000E+00
             0.0000000000000000E+00    0.0000000000000000E+00    0.0000000000000000E+00