 # Version information for this restart file 
 # current date 2022-06-16 11:04:57.421
 # current working dir /work/hpc/users/wnw36/MSU-DFT-Catalysis-School/5_NEB/1_H-Diffusion/Pt/3_NEB/3-node-loose
 # Program compiled at                              Mon May 23 16:32:41 CDT 2022
 # Program compiled on                             Orion-devel-1.HPC.MsState.Edu
 # Program compiled for                                  Linux-x86-64-intel-hpc2
 # Source code revision number                                       git:d8d7100
 &GLOBAL
   PRINT_LEVEL  MEDIUM
   PROJECT_NAME Pt111-H-r-0
   OUTPUT_FILE_NAME Pt111-H-r-0.out
   RUN_TYPE  BAND
 &END GLOBAL
 &MOTION
   &GEO_OPT
     TYPE  MINIMIZATION
     OPTIMIZER  LBFGS
     MAX_ITER  20000
     MAX_DR     3.0000000000000001E-03
     MAX_FORCE     3.0000000000000001E-03
     RMS_DR     3.0000000000000001E-03
     RMS_FORCE     3.0000000000000001E-03
   &END GEO_OPT
   &CONSTRAINT
     &FIXED_ATOMS
       COMPONENTS_TO_FIX  XYZ
       LIST  1..16
     &END FIXED_ATOMS
   &END CONSTRAINT
   &BAND
     NPROC_REP  24
     BAND_TYPE  CI-NEB
     NUMBER_OF_REPLICA  5
     ROTATE_FRAMES  T
     ALIGN_FRAMES  T
     K_SPRING     5.0000000000000003E-02
     &CONVERGENCE_CONTROL
       MAX_DR     3.0000000000000001E-03
       MAX_FORCE     3.0000000000000001E-03
       RMS_DR     3.0000000000000001E-03
       RMS_FORCE     3.0000000000000001E-03
     &END CONVERGENCE_CONTROL
     &CI_NEB
       NSTEPS_IT  5
     &END CI_NEB
     &OPTIMIZE_BAND
       OPT_TYPE  DIIS
       OPTIMIZE_END_POINTS  F
       &DIIS
         MAX_STEPS  400
       &END DIIS
     &END OPTIMIZE_BAND
     &REPLICA
       &COORD
             0.0000000000000000E+00    0.0000000000000000E+00    4.9999999999999947E+00
             1.4060005199999979E+00    2.4352643299999959E+00    4.9999999999999947E+00
             2.8120010299999949E+00    0.0000000000000000E+00    4.9999999999999947E+00
             4.2180015499999941E+00    2.4352643299999959E+00    4.9999999999999947E+00
             2.8120010299999949E+00    4.8705286599999917E+00    4.9999999999999947E+00
             4.2180015499999941E+00    7.3057929899999872E+00    4.9999999999999947E+00
             5.6240020699999915E+00    4.8705286599999917E+00    4.9999999999999947E+00
             7.0300025899999898E+00    7.3057929899999872E+00    4.9999999999999947E+00
             5.6240020699999915E+00    0.0000000000000000E+00    4.9999999999999947E+00
             7.0300025899999898E+00    2.4352643299999959E+00    4.9999999999999947E+00
             8.4360030999999882E+00    0.0000000000000000E+00    4.9999999999999947E+00
             9.8420036199999892E+00    2.4352643299999959E+00    4.9999999999999947E+00
             8.4360030999999882E+00    4.8705286599999917E+00    4.9999999999999947E+00
             9.8420036199999892E+00    7.3057929899999872E+00    4.9999999999999947E+00
             1.1248004139999983E+01    4.8705286599999917E+00    4.9999999999999947E+00
             1.2654004649999974E+01    7.3057929899999872E+00    4.9999999999999947E+00
             5.6281983420999930E+00    3.2464920362999958E+00    7.3476670491999885E+00
             4.2177519128999919E+00    8.0906660509999850E-01    7.3388271550999855E+00
             2.8115813754999950E+00    3.2431229140999958E+00    7.3390899319999905E+00
             8.4383127072999855E+00    8.1100051174999859E+00    7.3485278411999877E+00
             7.0313024671999891E+00    5.6807074856999913E+00    7.3342761955999878E+00
             5.6256875603999905E+00    8.1170656229999896E+00    7.3284974067999880E+00
             1.1244092541499978E+01    3.2492962220999937E+00    7.3497396963999906E+00
             9.8441753518999882E+00    8.1050535059999873E-01    7.3298785969999889E+00
             8.4367948644999871E+00    3.2458865126999936E+00    7.3344655589999901E+00
             1.4059144836699980E+01    8.1156173551999871E+00    7.3350746110999880E+00
             1.2651388289099977E+01    5.6795288990999921E+00    7.3333385960999884E+00
             1.1245765709299981E+01    8.1151031915999852E+00    7.3320493632999932E+00
             1.4085966507999983E+00    8.1105489669999886E-01    7.3385163337999888E+00
             4.2176394248999927E+00    5.6788201344999933E+00    7.3300560268999906E+00
             7.0265425282999905E+00    8.1008863979999868E-01    7.3298715628999895E+00
             9.8432229313999784E+00    5.6811367466999902E+00    7.3375642532999885E+00
             2.8141101641999962E+00    1.6231619739999978E+00    9.6830195305999833E+00
             4.2137393057999937E+00    4.0535018267999927E+00    9.6795326544999867E+00
             5.6218605913999902E+00    1.6164120408999980E+00    9.6816297427999860E+00
             7.0106847051999903E+00    4.0426127395999929E+00    9.6725158924999874E+00
             5.6072032600999897E+00    6.5000250781999922E+00    9.6553417114999824E+00
             7.0287033787999897E+00    8.9328160229999867E+00    9.6760358876999852E+00
             8.4371558373999882E+00    6.5151178116999917E+00    9.6738468141999867E+00
             9.8453648659999864E+00    8.9313823300999857E+00    9.6822264767999897E+00
             8.4392163307999866E+00    1.6005231015999974E+00    9.6558151494999827E+00
             9.8655493866999890E+00    4.0419780523999949E+00    9.6738027182999851E+00
             1.1253693343299984E+01    1.6169306255999976E+00    9.6799049935999815E+00
             1.2660722819399981E+01    4.0547127658999926E+00    9.6834658534999836E+00
             1.1265323640799982E+01    6.4982573043999894E+00    9.6635116204999800E+00
             1.2653740567399980E+01    8.9264121626999842E+00    9.6669927701999878E+00
             1.4058504176799977E+01    6.4912117325999921E+00    9.6681041739999873E+00
             1.5467863764999981E+01    8.9272540932999807E+00    9.6660663735999872E+00
             8.4309321374999886E+00    4.8666014940999940E+00    1.0634407879399982E+01
       &END COORD
       &VELOCITY
             0.0000000000000000E+00    0.0000000000000000E+00    0.0000000000000000E+00
             0.0000000000000000E+00    0.0000000000000000E+00    0.0000000000000000E+00
             0.0000000000000000E+00    0.0000000000000000E+00    0.0000000000000000E+00
             0.0000000000000000E+00    0.0000000000000000E+00    0.0000000000000000E+00
             0.0000000000000000E+00    0.0000000000000000E+00    0.0000000000000000E+00
             0.0000000000000000E+00    0.0000000000000000E+00    0.0000000000000000E+00
             0.0000000000000000E+00    0.0000000000000000E+00    0.0000000000000000E+00
             0.0000000000000000E+00    0.0000000000000000E+00    0.0000000000000000E+00
             0.0000000000000000E+00    0.0000000000000000E+00    0.0000000000000000E+00
             0.0000000000000000E+00    0.0000000000000000E+00    0.0000000000000000E+00
             0.0000000000000000E+00    0.0000000000000000E+00    0.0000000000000000E+00
             0.0000000000000000E+00    0.0000000000000000E+00    0.0000000000000000E+00
             0.0000000000000000E+00    0.0000000000000000E+00    0.0000000000000000E+00
             0.0000000000000000E+00    0.0000000000000000E+00    0.0000000000000000E+00
             0.0000000000000000E+00    0.0000000000000000E+00    0.0000000000000000E+00
             0.0000000000000000E+00    0.0000000000000000E+00    0.0000000000000000E+00
             0.0000000000000000E+00    0.0000000000000000E+00    0.0000000000000000E+00
             0.0000000000000000E+00    0.0000000000000000E+00    0.0000000000000000E+00
             0.0000000000000000E+00    0.0000000000000000E+00    0.0000000000000000E+00
             0.0000000000000000E+00    0.0000000000000000E+00    0.0000000000000000E+00
             0.0000000000000000E+00    0.0000000000000000E+00    0.0000000000000000E+00
             0.0000000000000000E+00    0.0000000000000000E+00    0.0000000000000000E+00
             0.0000000000000000E+00    0.0000000000000000E+00    0.0000000000000000E+00
             0.0000000000000000E+00    0.0000000000000000E+00    0.0000000000000000E+00
             0.0000000000000000E+00    0.0000000000000000E+00    0.0000000000000000E+00
             0.0000000000000000E+00    0.0000000000000000E+00    0.0000000000000000E+00
             0.0000000000000000E+00    0.0000000000000000E+00    0.0000000000000000E+00
             0.0000000000000000E+00    0.0000000000000000E+00    0.0000000000000000E+00
             0.0000000000000000E+00    0.0000000000000000E+00    0.0000000000000000E+00
             0.0000000000000000E+00    0.0000000000000000E+00    0.0000000000000000E+00
             0.0000000000000000E+00    0.0000000000000000E+00    0.0000000000000000E+00
             0.0000000000000000E+00    0.0000000000000000E+00    0.0000000000000000E+00
             0.0000000000000000E+00    0.0000000000000000E+00    0.0000000000000000E+00
             0.0000000000000000E+00    0.0000000000000000E+00    0.0000000000000000E+00
             0.0000000000000000E+00    0.0000000000000000E+00    0.0000000000000000E+00
             0.0000000000000000E+00    0.0000000000000000E+00    0.0000000000000000E+00
             0.0000000000000000E+00    0.0000000000000000E+00    0.0000000000000000E+00
             0.0000000000000000E+00    0.0000000000000000E+00    0.0000000000000000E+00
             0.0000000000000000E+00    0.0000000000000000E+00    0.0000000000000000E+00
             0.0000000000000000E+00    0.0000000000000000E+00    0.0000000000000000E+00
             0.0000000000000000E+00    0.0000000000000000E+00    0.0000000000000000E+00
             0.0000000000000000E+00    0.0000000000000000E+00    0.0000000000000000E+00
             0.0000000000000000E+00    0.0000000000000000E+00    0.0000000000000000E+00
             0.0000000000000000E+00    0.0000000000000000E+00    0.0000000000000000E+00
             0.0000000000000000E+00    0.0000000000000000E+00    0.0000000000000000E+00
             0.0000000000000000E+00    0.0000000000000000E+00    0.0000000000000000E+00
             0.0000000000000000E+00    0.0000000000000000E+00    0.0000000000000000E+00
             0.0000000000000000E+00    0.0000000000000000E+00    0.0000000000000000E+00
             0.0000000000000000E+00    0.0000000000000000E+00    0.0000000000000000E+00
       &END VELOCITY
     &END REPLICA
     &REPLICA
       &COORD
             7.3272722708896912E-04    2.8289103203258737E-04    5.0036084608173024E+00
             1.4065712031125710E+00    2.4356398978583016E+00    5.0016904508817603E+00
             2.8127335879158175E+00    4.7090045602709256E-04    5.0044974240407054E+00
             4.2185720638013011E+00    2.4358279072823019E+00    5.0025794141051634E+00
             2.8124096689980571E+00    4.8709969046839108E+00    4.9997724409430582E+00
             4.2182481448835425E+00    7.3063539115101825E+00    4.9978544310075135E+00
             5.6244105396867878E+00    4.8711849141085759E+00    5.0006614041696178E+00
             7.0302490155722746E+00    7.3065419209348423E+00    4.9987433942340758E+00
             5.6247344586045491E+00    6.5890988069003365E-04    5.0053863872672704E+00
             7.0305729344900394E+00    2.4360159167069613E+00    5.0034683773317274E+00
             8.4367353192932821E+00    8.4691930468443579E-04    5.0062753504906672E+00
             9.8425737951787635E+00    2.4362039261309585E+00    5.0043573405551269E+00
             8.4364114003755244E+00    4.8713729235325669E+00    5.0015503673930173E+00
             9.8422498762609969E+00    7.3067299303588324E+00    4.9996323574574770E+00
             1.1248412271064241E+01    4.8715609329572329E+00    5.0024393306195769E+00
             1.2654250736949725E+01    7.3069179397828341E+00    5.0005213206808774E+00
             5.6111436863945059E+00    3.2333145258589657E+00    7.3681182614182088E+00
             4.2070619638185187E+00    8.0054942926265815E-01    7.3530461014192925E+00
             2.8118342547844271E+00    3.2390770662803714E+00    7.3531185163265285E+00
             8.4349618147591876E+00    8.0782447438509006E+00    7.3664772834093570E+00
             7.0211074818433383E+00    5.6697968540578874E+00    7.3140414411389072E+00
             5.6323113735559529E+00    8.1053375617827861E+00    7.3289666078185229E+00
             1.1259002623685866E+01    3.2350244297214523E+00    7.3699477113305525E+00
             9.8560844474547906E+00    7.9370718152865583E-01    7.3246155601297982E+00
             8.4362523455248084E+00    3.2214744575044860E+00    7.2992194890995217E+00
             1.4061505779529726E+01    8.1066359448625462E+00    7.3273056564950352E+00
             1.2658844307371172E+01    5.6714543183143267E+00    7.3271097234689204E+00
             1.1239682543990096E+01    8.1045352671634365E+00    7.3287059373681629E+00
             1.4153695985348680E+00    8.0006571225950240E-01    7.3548835606663650E+00
             4.2136842443405893E+00    5.6733715998282177E+00    7.3266130710529556E+00
             7.0179466821182626E+00    7.9092190801996098E-01    7.3242928587561886E+00
             9.8502496870369178E+00    5.6690005033538107E+00    7.3133730870332903E+00
             2.8113856568281625E+00    1.5615726813957640E+00    9.7098748390690393E+00
             4.1917067933559560E+00    3.9914711127610314E+00    9.6808194882599778E+00
             5.5988262042598382E+00    1.5205844394915573E+00    9.6914790447246162E+00
             6.9631509633934110E+00    3.9132152850139432E+00    9.5704152102615438E+00
             5.6019864128523844E+00    6.4447782735594172E+00    9.6360191025081665E+00
             7.0307334563371304E+00    8.8862083972690176E+00    9.6810237611804748E+00
             8.4361389665499900E+00    6.4611417283776609E+00    9.6288872802567180E+00
             9.8393063996382200E+00    8.8869607381803029E+00    9.6786267346425792E+00
             8.4342730757830431E+00    1.4852698418561103E+00    9.6103507079748862E+00
             9.9101166393401794E+00    3.9140939492161553E+00    9.5687404696887022E+00
             1.1270912835874791E+01    1.5210178533631540E+00    9.6968150446783312E+00
             1.2679849824808219E+01    3.9917112551196579E+00    9.6818491308946193E+00
             1.1267894677860596E+01    6.4459102034162274E+00    9.6348296933897402E+00
             1.2650510395002376E+01    8.8603659897924310E+00    9.6581315403420245E+00
             1.4060541738463513E+01    6.4430382862749900E+00    9.6599973759805930E+00
             1.5470488844278377E+01    8.8605869891312867E+00    9.6581526107751010E+00
             8.4351133374055554E+00    4.5304339418492461E+00    1.0855485277629967E+01
       &END COORD
       &VELOCITY
             0.0000000000000000E+00    0.0000000000000000E+00    0.0000000000000000E+00
             0.0000000000000000E+00    0.0000000000000000E+00    0.0000000000000000E+00
             0.0000000000000000E+00    0.0000000000000000E+00    0.0000000000000000E+00
             0.0000000000000000E+00    0.0000000000000000E+00    0.0000000000000000E+00
             0.0000000000000000E+00    0.0000000000000000E+00    0.0000000000000000E+00
             0.0000000000000000E+00    0.0000000000000000E+00    0.0000000000000000E+00
             0.0000000000000000E+00    0.0000000000000000E+00    0.0000000000000000E+00
             0.0000000000000000E+00    0.0000000000000000E+00    0.0000000000000000E+00
             0.0000000000000000E+00    0.0000000000000000E+00    0.0000000000000000E+00
             0.0000000000000000E+00    0.0000000000000000E+00    0.0000000000000000E+00
             0.0000000000000000E+00    0.0000000000000000E+00    0.0000000000000000E+00
             0.0000000000000000E+00    0.0000000000000000E+00    0.0000000000000000E+00
             0.0000000000000000E+00    0.0000000000000000E+00    0.0000000000000000E+00
             0.0000000000000000E+00    0.0000000000000000E+00    0.0000000000000000E+00
             0.0000000000000000E+00    0.0000000000000000E+00    0.0000000000000000E+00
             0.0000000000000000E+00    0.0000000000000000E+00    0.0000000000000000E+00
             0.0000000000000000E+00    0.0000000000000000E+00    0.0000000000000000E+00
             0.0000000000000000E+00    0.0000000000000000E+00    0.0000000000000000E+00
             0.0000000000000000E+00    0.0000000000000000E+00    0.0000000000000000E+00
             0.0000000000000000E+00    0.0000000000000000E+00    0.0000000000000000E+00
             0.0000000000000000E+00    0.0000000000000000E+00    0.0000000000000000E+00
             0.0000000000000000E+00    0.0000000000000000E+00    0.0000000000000000E+00
             0.0000000000000000E+00    0.0000000000000000E+00    0.0000000000000000E+00
             0.0000000000000000E+00    0.0000000000000000E+00    0.0000000000000000E+00
             0.0000000000000000E+00    0.0000000000000000E+00    0.0000000000000000E+00
             0.0000000000000000E+00    0.0000000000000000E+00    0.0000000000000000E+00
             0.0000000000000000E+00    0.0000000000000000E+00    0.0000000000000000E+00
             0.0000000000000000E+00    0.0000000000000000E+00    0.0000000000000000E+00
             0.0000000000000000E+00    0.0000000000000000E+00    0.0000000000000000E+00
             0.0000000000000000E+00    0.0000000000000000E+00    0.0000000000000000E+00
             0.0000000000000000E+00    0.0000000000000000E+00    0.0000000000000000E+00
             0.0000000000000000E+00    0.0000000000000000E+00    0.0000000000000000E+00
             0.0000000000000000E+00    0.0000000000000000E+00    0.0000000000000000E+00
             0.0000000000000000E+00    0.0000000000000000E+00    0.0000000000000000E+00
             0.0000000000000000E+00    0.0000000000000000E+00    0.0000000000000000E+00
             0.0000000000000000E+00    0.0000000000000000E+00    0.0000000000000000E+00
             0.0000000000000000E+00    0.0000000000000000E+00    0.0000000000000000E+00
             0.0000000000000000E+00    0.0000000000000000E+00    0.0000000000000000E+00
             0.0000000000000000E+00    0.0000000000000000E+00    0.0000000000000000E+00
             0.0000000000000000E+00    0.0000000000000000E+00    0.0000000000000000E+00
             0.0000000000000000E+00    0.0000000000000000E+00    0.0000000000000000E+00
             0.0000000000000000E+00    0.0000000000000000E+00    0.0000000000000000E+00
             0.0000000000000000E+00    0.0000000000000000E+00    0.0000000000000000E+00
             0.0000000000000000E+00    0.0000000000000000E+00    0.0000000000000000E+00
             0.0000000000000000E+00    0.0000000000000000E+00    0.0000000000000000E+00
             0.0000000000000000E+00    0.0000000000000000E+00    0.0000000000000000E+00
             0.0000000000000000E+00    0.0000000000000000E+00    0.0000000000000000E+00
             0.0000000000000000E+00    0.0000000000000000E+00    0.0000000000000000E+00
             0.0000000000000000E+00    0.0000000000000000E+00    0.0000000000000000E+00
       &END VELOCITY
     &END REPLICA
     &REPLICA
       &COORD
             5.3510252670907639E-04    2.0659216749067789E-04    5.0026352187137180E+00
             1.4064172835160775E+00    2.4355386030207073E+00    5.0012345174365951E+00
             2.8125360088805729E+00    3.4389335421546524E-04    5.0032844186470733E+00
             4.2184181898699435E+00    2.4356759042074332E+00    5.0018837173699531E+00
             2.8122994545054461E+00    4.8708706138734401E+00    4.9998338161571674E+00
             4.2181816354948145E+00    7.3062026247266552E+00    4.9984331148800463E+00
             5.6243003708593129E+00    4.8710079150606500E+00    5.0004830160928329E+00
             7.0301825518486787E+00    7.3063399259138686E+00    4.9990823148157073E+00
             5.6245369252344393E+00    4.8119454142874147E-04    5.0039336185827423E+00
             7.0304191062238086E+00    2.4358132053946466E+00    5.0025329173056212E+00
             8.4365378315883053E+00    6.1849572815318417E-04    5.0045828185161012E+00
             9.8424200125776711E+00    2.4359505065813707E+00    5.0031821172389783E+00
             8.4363012772131789E+00    4.8711452162473758E+00    5.0011322160261873E+00
             9.8421834582025429E+00    7.3064772271005927E+00    4.9997315147490680E+00
             1.1248302193567039E+01    4.8712825174345893E+00    5.0017814159618572E+00
             1.2654184364556404E+01    7.3066145282873185E+00    5.0003807146824251E+00
             5.6157150054338105E+00    3.2673507615426440E+00    7.3720828137399526E+00
             4.2118961818603093E+00    8.2190237021229573E-01    7.3354982441891030E+00
             2.8120600706283638E+00    3.2558485117651177E+00    7.3493923039312925E+00
             8.4362305745356387E+00    8.1282103168235338E+00    7.3280633225957503E+00
             7.0222357454830195E+00    5.6951915510053057E+00    7.3276996787641471E+00
             5.6281778953204471E+00    8.1185506600162469E+00    7.3274102344861101E+00
             1.1256172124810751E+01    3.2658698743626267E+00    7.3722553065942034E+00
             9.8485091541307419E+00    8.0084117872284122E-01    7.3216323319949863E+00
             8.4351954952743213E+00    3.2433690650991140E+00    7.3041873282989860E+00
             1.4060368800974823E+01    8.1125248405617683E+00    7.3339891844768657E+00
             1.2660638330220864E+01    5.6892555739415718E+00    7.3365760298036902E+00
             1.1244926455695051E+01    8.1176760068483844E+00    7.3283220468468810E+00
             1.4123274000356707E+00    8.2012228405523935E-01    7.3351095419715220E+00
             4.2127178685231037E+00    5.6893086449710752E+00    7.3361736135156148E+00
             7.0237928808573056E+00    8.0427939794708636E-01    7.3204707274345981E+00
             9.8503340817923135E+00    5.6935473081467549E+00    7.3283728416080258E+00
             2.8145167303582577E+00    1.6116971722313584E+00    9.6830589418220061E+00
             4.2034882299497367E+00    4.0405824406870723E+00    9.6860201550944485E+00
             5.6080241851697163E+00    1.5774676470783626E+00    9.6676982851778241E+00
             6.9971723724661485E+00    3.9736095718321405E+00    9.6213573246220427E+00
             5.6180712008229285E+00    6.4933164177684528E+00    9.6545400879937855E+00
             7.0360318998715456E+00    8.9254935494198655E+00    9.6629730743413713E+00
             8.4389195374715325E+00    6.5246888203916473E+00    9.6223207335841163E+00
             9.8415186004361370E+00    8.9266852134877119E+00    9.6617810070719123E+00
             8.4427280191004996E+00    1.5364271288481821E+00    9.6123808715009975E+00
             9.8751522395879032E+00    3.9835641572573142E+00    9.6148779595010794E+00
             1.1267658857205413E+01    1.5793179536893893E+00    9.6639913275871638E+00
             1.2672129122734939E+01    4.0426967177470052E+00    9.6872871727661671E+00
             1.1257325855859962E+01    6.4943216861408217E+00    9.6541012894603568E+00
             1.2652007849266962E+01    8.9052902206856466E+00    9.6579886755066511E+00
             1.4062479702818923E+01    6.4794565329201177E+00    9.6718338235355148E+00
             1.5474045716045053E+01    8.9043700762330538E+00    9.6570106804241931E+00
             8.4374476123412219E+00    4.0515203794614871E+00    1.1025823612171378E+01
       &END COORD
       &VELOCITY
             0.0000000000000000E+00    0.0000000000000000E+00    0.0000000000000000E+00
             0.0000000000000000E+00    0.0000000000000000E+00    0.0000000000000000E+00
             0.0000000000000000E+00    0.0000000000000000E+00    0.0000000000000000E+00
             0.0000000000000000E+00    0.0000000000000000E+00    0.0000000000000000E+00
             0.0000000000000000E+00    0.0000000000000000E+00    0.0000000000000000E+00
             0.0000000000000000E+00    0.0000000000000000E+00    0.0000000000000000E+00
             0.0000000000000000E+00    0.0000000000000000E+00    0.0000000000000000E+00
             0.0000000000000000E+00    0.0000000000000000E+00    0.0000000000000000E+00
             0.0000000000000000E+00    0.0000000000000000E+00    0.0000000000000000E+00
             0.0000000000000000E+00    0.0000000000000000E+00    0.0000000000000000E+00
             0.0000000000000000E+00    0.0000000000000000E+00    0.0000000000000000E+00
             0.0000000000000000E+00    0.0000000000000000E+00    0.0000000000000000E+00
             0.0000000000000000E+00    0.0000000000000000E+00    0.0000000000000000E+00
             0.0000000000000000E+00    0.0000000000000000E+00    0.0000000000000000E+00
             0.0000000000000000E+00    0.0000000000000000E+00    0.0000000000000000E+00
             0.0000000000000000E+00    0.0000000000000000E+00    0.0000000000000000E+00
             0.0000000000000000E+00    0.0000000000000000E+00    0.0000000000000000E+00
             0.0000000000000000E+00    0.0000000000000000E+00    0.0000000000000000E+00
             0.0000000000000000E+00    0.0000000000000000E+00    0.0000000000000000E+00
             0.0000000000000000E+00    0.0000000000000000E+00    0.0000000000000000E+00
             0.0000000000000000E+00    0.0000000000000000E+00    0.0000000000000000E+00
             0.0000000000000000E+00    0.0000000000000000E+00    0.0000000000000000E+00
             0.0000000000000000E+00    0.0000000000000000E+00    0.0000000000000000E+00
             0.0000000000000000E+00    0.0000000000000000E+00    0.0000000000000000E+00
             0.0000000000000000E+00    0.0000000000000000E+00    0.0000000000000000E+00
             0.0000000000000000E+00    0.0000000000000000E+00    0.0000000000000000E+00
             0.0000000000000000E+00    0.0000000000000000E+00    0.0000000000000000E+00
             0.0000000000000000E+00    0.0000000000000000E+00    0.0000000000000000E+00
             0.0000000000000000E+00    0.0000000000000000E+00    0.0000000000000000E+00
             0.0000000000000000E+00    0.0000000000000000E+00    0.0000000000000000E+00
             0.0000000000000000E+00    0.0000000000000000E+00    0.0000000000000000E+00
             0.0000000000000000E+00    0.0000000000000000E+00    0.0000000000000000E+00
             0.0000000000000000E+00    0.0000000000000000E+00    0.0000000000000000E+00
             0.0000000000000000E+00    0.0000000000000000E+00    0.0000000000000000E+00
             0.0000000000000000E+00    0.0000000000000000E+00    0.0000000000000000E+00
             0.0000000000000000E+00    0.0000000000000000E+00    0.0000000000000000E+00
             0.0000000000000000E+00    0.0000000000000000E+00    0.0000000000000000E+00
             0.0000000000000000E+00    0.0000000000000000E+00    0.0000000000000000E+00
             0.0000000000000000E+00    0.0000000000000000E+00    0.0000000000000000E+00
             0.0000000000000000E+00    0.0000000000000000E+00    0.0000000000000000E+00
             0.0000000000000000E+00    0.0000000000000000E+00    0.0000000000000000E+00
             0.0000000000000000E+00    0.0000000000000000E+00    0.0000000000000000E+00
             0.0000000000000000E+00    0.0000000000000000E+00    0.0000000000000000E+00
             0.0000000000000000E+00    0.0000000000000000E+00    0.0000000000000000E+00
             0.0000000000000000E+00    0.0000000000000000E+00    0.0000000000000000E+00
             0.0000000000000000E+00    0.0000000000000000E+00    0.0000000000000000E+00
             0.0000000000000000E+00    0.0000000000000000E+00    0.0000000000000000E+00
             0.0000000000000000E+00    0.0000000000000000E+00    0.0000000000000000E+00
             0.0000000000000000E+00    0.0000000000000000E+00    0.0000000000000000E+00
       &END VELOCITY
     &END REPLICA
     &REPLICA
       &COORD
             6.8246323560669151E-04    2.6348513049254070E-04    5.0033609258041754E+00
             1.4065320551048974E+00    2.4356141344651427E+00    5.0015744884805082E+00
             2.8126833355388356E+00    4.3859738929848775E-04    5.0041889074805059E+00
             4.2185329274081287E+00    2.4357892467239508E+00    5.0024024701568388E+00
             2.8123816369741887E+00    4.8709647837991747E+00    4.9997880511538941E+00
             4.2182312288434822E+00    7.3063154331338236E+00    4.9980016138302261E+00
             5.6243825192774199E+00    4.8711398960586028E+00    5.0006160328331717E+00
             7.0302321111467094E+00    7.3064905453932543E+00    4.9988295955095019E+00
             5.6246842178420628E+00    6.1370964872778096E-04    5.0050168891597870E+00
             7.0305338097113577E+00    2.4359643589833784E+00    5.0032304518361190E+00
             8.4366850901452963E+00    7.8882190753314248E-04    5.0058448708361203E+00
             9.8425346820145876E+00    2.4361394712421847E+00    5.0040584335124505E+00
             8.4363833915806534E+00    4.8713150083174064E+00    5.0014440145095023E+00
             9.8422329834499340E+00    7.3066656576520606E+00    4.9996575771858360E+00
             1.1248384273883877E+01    4.8714901205768397E+00    5.0022719961887789E+00
             1.2654233855753164E+01    7.3068407699108677E+00    5.0004855588621702E+00
             5.6062704510550736E+00    3.2702960326313901E+00    7.3537843914101471E+00
             4.2098609189147584E+00    8.1848409888951024E-01    7.3319052377026770E+00
             2.8117698298626324E+00    3.2552208434609229E+00    7.3461598620757753E+00
             8.4357074856387086E+00    8.1324966505210110E+00    7.3204344624525328E+00
             7.0140580747380996E+00    5.7015460299510217E+00    7.3310166558851337E+00
             5.6254898802175566E+00    8.1215643905003692E+00    7.3308687345158665E+00
             1.1265011983302790E+01    3.2700509626873657E+00    7.3550609986157856E+00
             9.8402285406124026E+00    7.9553421308430239E-01    7.3358338190853294E+00