 # Version information for this restart file 
 # current date 2022-06-16 11:17:20.994
 # current working dir /work/hpc/users/wnw36/MSU-DFT-Catalysis-School/5_NEB/1_H-Diffusion/Pt/3_NEB/3-node-loose
 # Program compiled at                              Mon May 23 16:32:41 CDT 2022
 # Program compiled on                             Orion-devel-1.HPC.MsState.Edu
 # Program compiled for                                  Linux-x86-64-intel-hpc2
 # Source code revision number                                       git:d8d7100
 &GLOBAL
   PRINT_LEVEL  MEDIUM
   PROJECT_NAME Pt111-H-r-0
   OUTPUT_FILE_NAME Pt111-H-r-0.out
   RUN_TYPE  BAND
 &END GLOBAL
 &MOTION
   &GEO_OPT
     TYPE  MINIMIZATION
     OPTIMIZER  LBFGS
     MAX_ITER  20000
     MAX_DR     3.0000000000000001E-03
     MAX_FORCE     3.0000000000000001E-03
     RMS_DR     3.0000000000000001E-03
     RMS_FORCE     3.0000000000000001E-03
   &END GEO_OPT
   &CONSTRAINT
     &FIXED_ATOMS
       COMPONENTS_TO_FIX  XYZ
       LIST  1..16
     &END FIXED_ATOMS
   &END CONSTRAINT
   &BAND
     NPROC_REP  24
     BAND_TYPE  CI-NEB
     NUMBER_OF_REPLICA  5
     ROTATE_FRAMES  T
     ALIGN_FRAMES  T
     K_SPRING     5.0000000000000003E-02
     &CONVERGENCE_CONTROL
       MAX_DR     3.0000000000000001E-03
       MAX_FORCE     3.0000000000000001E-03
       RMS_DR     3.0000000000000001E-03
       RMS_FORCE     3.0000000000000001E-03
     &END CONVERGENCE_CONTROL
     &CI_NEB
       NSTEPS_IT  5
     &END CI_NEB
     &OPTIMIZE_BAND
       OPT_TYPE  DIIS
       OPTIMIZE_END_POINTS  F
       &DIIS
         MAX_STEPS  400
       &END DIIS
     &END OPTIMIZE_BAND
     &REPLICA
       &COORD
             0.0000000000000000E+00    0.0000000000000000E+00    4.9999999999999947E+00
             1.4060005199999979E+00    2.4352643299999959E+00    4.9999999999999947E+00
             2.8120010299999949E+00    0.0000000000000000E+00    4.9999999999999947E+00
             4.2180015499999941E+00    2.4352643299999959E+00    4.9999999999999947E+00
             2.8120010299999949E+00    4.8705286599999917E+00    4.9999999999999947E+00
             4.2180015499999941E+00    7.3057929899999872E+00    4.9999999999999947E+00
             5.6240020699999915E+00    4.8705286599999917E+00    4.9999999999999947E+00
             7.0300025899999898E+00    7.3057929899999872E+00    4.9999999999999947E+00
             5.6240020699999915E+00    0.0000000000000000E+00    4.9999999999999947E+00
             7.0300025899999898E+00    2.4352643299999959E+00    4.9999999999999947E+00
             8.4360030999999882E+00    0.0000000000000000E+00    4.9999999999999947E+00
             9.8420036199999892E+00    2.4352643299999959E+00    4.9999999999999947E+00
             8.4360030999999882E+00    4.8705286599999917E+00    4.9999999999999947E+00
             9.8420036199999892E+00    7.3057929899999872E+00    4.9999999999999947E+00
             1.1248004139999983E+01    4.8705286599999917E+00    4.9999999999999947E+00
             1.2654004649999974E+01    7.3057929899999872E+00    4.9999999999999947E+00
             5.6281983420999930E+00    3.2464920362999958E+00    7.3476670491999885E+00
             4.2177519128999919E+00    8.0906660509999850E-01    7.3388271550999855E+00
             2.8115813754999950E+00    3.2431229140999958E+00    7.3390899319999905E+00
             8.4383127072999855E+00    8.1100051174999859E+00    7.3485278411999877E+00
             7.0313024671999891E+00    5.6807074856999913E+00    7.3342761955999878E+00
             5.6256875603999905E+00    8.1170656229999896E+00    7.3284974067999880E+00
             1.1244092541499978E+01    3.2492962220999937E+00    7.3497396963999906E+00
             9.8441753518999882E+00    8.1050535059999873E-01    7.3298785969999889E+00
             8.4367948644999871E+00    3.2458865126999936E+00    7.3344655589999901E+00
             1.4059144836699980E+01    8.1156173551999871E+00    7.3350746110999880E+00
             1.2651388289099977E+01    5.6795288990999921E+00    7.3333385960999884E+00
             1.1245765709299981E+01    8.1151031915999852E+00    7.3320493632999932E+00
             1.4085966507999983E+00    8.1105489669999886E-01    7.3385163337999888E+00
             4.2176394248999927E+00    5.6788201344999933E+00    7.3300560268999906E+00
             7.0265425282999905E+00    8.1008863979999868E-01    7.3298715628999895E+00
             9.8432229313999784E+00    5.6811367466999902E+00    7.3375642532999885E+00
             2.8141101641999962E+00    1.6231619739999978E+00    9.6830195305999833E+00
             4.2137393057999937E+00    4.0535018267999927E+00    9.6795326544999867E+00
             5.6218605913999902E+00    1.6164120408999980E+00    9.6816297427999860E+00
             7.0106847051999903E+00    4.0426127395999929E+00    9.6725158924999874E+00
             5.6072032600999897E+00    6.5000250781999922E+00    9.6553417114999824E+00
             7.0287033787999897E+00    8.9328160229999867E+00    9.6760358876999852E+00
             8.4371558373999882E+00    6.5151178116999917E+00    9.6738468141999867E+00
             9.8453648659999864E+00    8.9313823300999857E+00    9.6822264767999897E+00
             8.4392163307999866E+00    1.6005231015999974E+00    9.6558151494999827E+00
             9.8655493866999890E+00    4.0419780523999949E+00    9.6738027182999851E+00
             1.1253693343299984E+01    1.6169306255999976E+00    9.6799049935999815E+00
             1.2660722819399981E+01    4.0547127658999926E+00    9.6834658534999836E+00
             1.1265323640799982E+01    6.4982573043999894E+00    9.6635116204999800E+00
             1.2653740567399980E+01    8.9264121626999842E+00    9.6669927701999878E+00
             1.4058504176799977E+01    6.4912117325999921E+00    9.6681041739999873E+00
             1.5467863764999981E+01    8.9272540932999807E+00    9.6660663735999872E+00
             8.4309321374999886E+00    4.8666014940999940E+00    1.0634407879399982E+01
       &END COORD
       &VELOCITY
             0.0000000000000000E+00    0.0000000000000000E+00    0.0000000000000000E+00
             0.0000000000000000E+00    0.0000000000000000E+00    0.0000000000000000E+00
             0.0000000000000000E+00    0.0000000000000000E+00    0.0000000000000000E+00
             0.0000000000000000E+00    0.0000000000000000E+00    0.0000000000000000E+00
             0.0000000000000000E+00    0.0000000000000000E+00    0.0000000000000000E+00
             0.0000000000000000E+00    0.0000000000000000E+00    0.0000000000000000E+00
             0.0000000000000000E+00    0.0000000000000000E+00    0.0000000000000000E+00
             0.0000000000000000E+00    0.0000000000000000E+00    0.0000000000000000E+00
             0.0000000000000000E+00    0.0000000000000000E+00    0.0000000000000000E+00
             0.0000000000000000E+00    0.0000000000000000E+00    0.0000000000000000E+00
             0.0000000000000000E+00    0.0000000000000000E+00    0.0000000000000000E+00
             0.0000000000000000E+00    0.0000000000000000E+00    0.0000000000000000E+00
             0.0000000000000000E+00    0.0000000000000000E+00    0.0000000000000000E+00
             0.0000000000000000E+00    0.0000000000000000E+00    0.0000000000000000E+00
             0.0000000000000000E+00    0.0000000000000000E+00    0.0000000000000000E+00
             0.0000000000000000E+00    0.0000000000000000E+00    0.0000000000000000E+00
             0.0000000000000000E+00    0.0000000000000000E+00    0.0000000000000000E+00
             0.0000000000000000E+00    0.0000000000000000E+00    0.0000000000000000E+00
             0.0000000000000000E+00    0.0000000000000000E+00    0.0000000000000000E+00
             0.0000000000000000E+00    0.0000000000000000E+00    0.0000000000000000E+00
             0.0000000000000000E+00    0.0000000000000000E+00    0.0000000000000000E+00
             0.0000000000000000E+00    0.0000000000000000E+00    0.0000000000000000E+00
             0.0000000000000000E+00    0.0000000000000000E+00    0.0000000000000000E+00
             0.0000000000000000E+00    0.0000000000000000E+00    0.0000000000000000E+00
             0.0000000000000000E+00    0.0000000000000000E+00    0.0000000000000000E+00
             0.0000000000000000E+00    0.0000000000000000E+00    0.0000000000000000E+00
             0.0000000000000000E+00    0.0000000000000000E+00    0.0000000000000000E+00
             0.0000000000000000E+00    0.0000000000000000E+00    0.0000000000000000E+00
             0.0000000000000000E+00    0.0000000000000000E+00    0.0000000000000000E+00
             0.0000000000000000E+00    0.0000000000000000E+00    0.0000000000000000E+00
             0.0000000000000000E+00    0.0000000000000000E+00    0.0000000000000000E+00
             0.0000000000000000E+00    0.0000000000000000E+00    0.0000000000000000E+00
             0.0000000000000000E+00    0.0000000000000000E+00    0.0000000000000000E+00
             0.0000000000000000E+00    0.0000000000000000E+00    0.0000000000000000E+00
             0.0000000000000000E+00    0.0000000000000000E+00    0.0000000000000000E+00
             0.0000000000000000E+00    0.0000000000000000E+00    0.0000000000000000E+00
             0.0000000000000000E+00    0.0000000000000000E+00    0.0000000000000000E+00
             0.0000000000000000E+00    0.0000000000000000E+00    0.0000000000000000E+00
             0.0000000000000000E+00    0.0000000000000000E+00    0.0000000000000000E+00
             0.0000000000000000E+00    0.0000000000000000E+00    0.0000000000000000E+00
             0.0000000000000000E+00    0.0000000000000000E+00    0.0000000000000000E+00
             0.0000000000000000E+00    0.0000000000000000E+00    0.0000000000000000E+00
             0.0000000000000000E+00    0.0000000000000000E+00    0.0000000000000000E+00
             0.0000000000000000E+00    0.0000000000000000E+00    0.0000000000000000E+00
             0.0000000000000000E+00    0.0000000000000000E+00    0.0000000000000000E+00
             0.0000000000000000E+00    0.0000000000000000E+00    0.0000000000000000E+00
             0.0000000000000000E+00    0.0000000000000000E+00    0.0000000000000000E+00
             0.0000000000000000E+00    0.0000000000000000E+00    0.0000000000000000E+00
             0.0000000000000000E+00    0.0000000000000000E+00    0.0000000000000000E+00
       &END VELOCITY
     &END REPLICA
     &REPLICA
       &COORD
             8.2792074890295094E-04    3.1964330850489485E-04    5.0040772602297272E+00
             1.4066453443936879E+00    2.4356886904045467E+00    5.0019100687244444E+00
             2.8128287594412660E+00    5.3207830117299167E-04    5.0050817146439464E+00
             4.2186461830860518E+00    2.4359011253972205E+00    5.0029145231386609E+00
             2.8124627580384778E+00    4.8710577374998412E+00    4.9997428772155894E+00
             4.2182801816832658E+00    7.3064267845958861E+00    4.9975756857103031E+00
             5.6244636067308438E+00    4.8712701724932668E+00    5.0007473316333746E+00
             7.0302810303756331E+00    7.3066392195893055E+00    4.9985801401280900E+00
             5.6248296081336324E+00    7.4451329459638475E-04    5.0060861690617369E+00
             7.0306470317784271E+00    2.4361135603906408E+00    5.0039189775564514E+00
             8.4368304468260007E+00    9.5694828726434968E-04    5.0070906234759471E+00
             9.8426478704707829E+00    2.4363259953833114E+00    5.0049234319706652E+00
             8.4364644454232138E+00    4.8714826074859321E+00    5.0017517860475884E+00
             9.8422818690679890E+00    7.3068516545819691E+00    4.9995845945423056E+00
             1.1248465294115563E+01    4.8716950424793577E+00    5.0027562404653727E+00
             1.2654282707760354E+01    7.3070640895746450E+00    5.0005890489565203E+00
             5.6120286441587748E+00    3.2273432307307877E+00    7.3676478693376755E+00
             4.2063291551786728E+00    7.9424308077654016E-01    7.3554211475978528E+00
             2.8110186025479154E+00    3.2317323101305497E+00    7.3531158446864433E+00
             8.4347399024688539E+00    8.0705987437869187E+00    7.3686956150252128E+00
             7.0211606643153459E+00    5.6620667333971646E+00    7.3132394978666975E+00
             5.6331274671474789E+00    8.0995395376123884E+00    7.3276892670012588E+00
             1.1258469473724288E+01    3.2279180584084259E+00    7.3688189427977031E+00
             9.8564484289723957E+00    7.8863234512665092E-01    7.3258026924290860E+00
             8.4350861666173831E+00    3.2168542113076390E+00    7.2978377816991244E+00
             1.4060727813562734E+01    8.1011296786844582E+00    7.3272548116260499E+00
             1.2658347656096861E+01    5.6658942618035306E+00    7.3266303746588246E+00
             1.1238401149153603E+01    8.0996007993170291E+00    7.3283638067913692E+00
             1.4167301082126462E+00    7.9492863338475905E-01    7.3561869664682282E+00
             4.2139546693039209E+00    5.6680356115827539E+00    7.3257548005238977E+00
             7.0170237018934598E+00    7.8555086172358113E-01    7.3253687818074837E+00
             9.8493293234005499E+00    5.6625471354133152E+00    7.3126346749608739E+00
             2.8133585233406926E+00    1.5480350975858606E+00    9.7126283373259561E+00
             4.1924546336912751E+00    3.9783016107390181E+00    9.6796785318630594E+00
             5.6002685976544626E+00    1.5071107255974410E+00    9.6927158344473892E+00
             6.9628119561793582E+00    3.9028970068759095E+00    9.5695533198363130E+00
             5.6020132147676653E+00    6.4337825369457127E+00    9.6332664445862743E+00
             7.0297634921731609E+00    8.8733864404644045E+00    9.6821684670825707E+00
             8.4374376988957511E+00    6.4511200662312982E+00    9.6276793920284334E+00
             9.8425014351191678E+00    8.8754349903342575E+00    9.6805849561394304E+00
             8.4354618266325225E+00    1.4736566905580308E+00    9.6109367498550142E+00
             9.9102926297802565E+00    3.9026018604128834E+00    9.5708072925261689E+00
             1.1271706250199669E+01    1.5097281713972839E+00    9.6965404932923676E+00
             1.2681174998572398E+01    3.9779283439254720E+00    9.6793120645520094E+00
             1.1272270438173798E+01    6.4342611702534347E+00    9.6331071460269690E+00
             1.2652522487966159E+01    8.8470837840829919E+00    9.6564771914226171E+00
             1.4060955718899157E+01    6.4308637813761855E+00    9.6602101832404053E+00
             1.5471211789110580E+01    8.8469036820888753E+00    9.6569432640046386E+00
             8.4361598058384413E+00    4.5371711951870957E+00    1.0850911877682103E+01
       &END COORD
       &VELOCITY
             0.0000000000000000E+00    0.0000000000000000E+00    0.0000000000000000E+00
             0.0000000000000000E+00    0.0000000000000000E+00    0.0000000000000000E+00
             0.0000000000000000E+00    0.0000000000000000E+00    0.0000000000000000E+00
             0.0000000000000000E+00    0.0000000000000000E+00    0.0000000000000000E+00
             0.0000000000000000E+00    0.0000000000000000E+00    0.0000000000000000E+00
             0.0000000000000000E+00    0.0000000000000000E+00    0.0000000000000000E+00
             0.0000000000000000E+00    0.0000000000000000E+00    0.0000000000000000E+00
             0.0000000000000000E+00    0.0000000000000000E+00    0.0000000000000000E+00
             0.0000000000000000E+00    0.0000000000000000E+00    0.0000000000000000E+00
             0.0000000000000000E+00    0.0000000000000000E+00    0.0000000000000000E+00
             0.0000000000000000E+00    0.0000000000000000E+00    0.0000000000000000E+00
             0.0000000000000000E+00    0.0000000000000000E+00    0.0000000000000000E+00
             0.0000000000000000E+00    0.0000000000000000E+00    0.0000000000000000E+00
             0.0000000000000000E+00    0.0000000000000000E+00    0.0000000000000000E+00
             0.0000000000000000E+00    0.0000000000000000E+00    0.0000000000000000E+00
             0.0000000000000000E+00    0.0000000000000000E+00    0.0000000000000000E+00
             0.0000000000000000E+00    0.0000000000000000E+00    0.0000000000000000E+00
             0.0000000000000000E+00    0.0000000000000000E+00    0.0000000000000000E+00
             0.0000000000000000E+00    0.0000000000000000E+00    0.0000000000000000E+00
             0.0000000000000000E+00    0.0000000000000000E+00    0.0000000000000000E+00
             0.0000000000000000E+00    0.0000000000000000E+00    0.0000000000000000E+00
             0.0000000000000000E+00    0.0000000000000000E+00    0.0000000000000000E+00
             0.0000000000000000E+00    0.0000000000000000E+00    0.0000000000000000E+00
             0.0000000000000000E+00    0.0000000000000000E+00    0.0000000000000000E+00
             0.0000000000000000E+00    0.0000000000000000E+00    0.0000000000000000E+00
             0.0000000000000000E+00    0.0000000000000000E+00    0.0000000000000000E+00
             0.0000000000000000E+00    0.0000000000000000E+00    0.0000000000000000E+00
             0.0000000000000000E+00    0.0000000000000000E+00    0.0000000000000000E+00
             0.0000000000000000E+00    0.0000000000000000E+00    0.0000000000000000E+00
             0.0000000000000000E+00    0.0000000000000000E+00    0.0000000000000000E+00
             0.0000000000000000E+00    0.0000000000000000E+00    0.0000000000000000E+00
             0.0000000000000000E+00    0.0000000000000000E+00    0.0000000000000000E+00
             0.0000000000000000E+00    0.0000000000000000E+00    0.0000000000000000E+00
             0.0000000000000000E+00    0.0000000000000000E+00    0.0000000000000000E+00
             0.0000000000000000E+00    0.0000000000000000E+00    0.0000000000000000E+00
             0.0000000000000000E+00    0.0000000000000000E+00    0.0000000000000000E+00
             0.0000000000000000E+00    0.0000000000000000E+00    0.0000000000000000E+00
             0.0000000000000000E+00    0.0000000000000000E+00    0.0000000000000000E+00
             0.0000000000000000E+00    0.0000000000000000E+00    0.0000000000000000E+00
             0.0000000000000000E+00    0.0000000000000000E+00    0.0000000000000000E+00
             0.0000000000000000E+00    0.0000000000000000E+00    0.0000000000000000E+00
             0.0000000000000000E+00    0.0000000000000000E+00    0.0000000000000000E+00
             0.0000000000000000E+00    0.0000000000000000E+00    0.0000000000000000E+00
             0.0000000000000000E+00    0.0000000000000000E+00    0.0000000000000000E+00
             0.0000000000000000E+00    0.0000000000000000E+00    0.0000000000000000E+00
             0.0000000000000000E+00    0.0000000000000000E+00    0.0000000000000000E+00
             0.0000000000000000E+00    0.0000000000000000E+00    0.0000000000000000E+00
             0.0000000000000000E+00    0.0000000000000000E+00    0.0000000000000000E+00
             0.0000000000000000E+00    0.0000000000000000E+00    0.0000000000000000E+00
       &END VELOCITY
     &END REPLICA
     &REPLICA
       &COORD
             5.4689044224873955E-04    2.1114324116346732E-04    5.0026932706459650E+00
             1.4064264645101530E+00    2.4355446450538536E+00    5.0012617129487618E+00
             2.8125477940722794E+00    3.5146907216074264E-04    5.0033567719769048E+00
             4.2184273681401860E+00    2.4356849708848518E+00    5.0019252142797033E+00
             2.8123060285780577E+00    4.8708781468660485E+00    4.9998301552492004E+00
             4.2181856026459617E+00    7.3062116486787376E+00    4.9983985975519971E+00
             5.6243069422080909E+00    4.8710184726975427E+00    5.0004936565825009E+00
             7.0301865162759931E+00    7.3063519745102337E+00    4.9990620988852932E+00
             5.6245487077023117E+00    4.9179490365729378E-04    5.0040202733102088E+00
             7.0304282817702175E+00    2.4358252967163483E+00    5.0025887156130064E+00
             8.4365496113323442E+00    6.3212073465420662E-04    5.0046837746411512E+00
             9.8424291854002472E+00    2.4359656225473447E+00    5.0032522169439471E+00
             8.4363078458381260E+00    4.8711587985285405E+00    5.0011571579134397E+00
             9.8421874199060255E+00    7.3064923003412305E+00    4.9997256002162374E+00
             1.1248308759468150E+01    4.8712991243600365E+00    5.0018206592467438E+00
             1.2654188323536051E+01    7.3066326261722283E+00    5.0003891015471797E+00
             5.6170336003316095E+00    3.2645450353971612E+00    7.3750216356500298E+00
             4.2128573030334158E+00    8.2318016963429985E-01    7.3349919983203895E+00
             2.8128019750779547E+00    3.2569887743842689E+00    7.3494416564356300E+00
             8.4374173726491453E+00    8.1279782121949822E+00    7.3274638951595383E+00
             7.0210275789723040E+00    5.6944042152938845E+00    7.3302406215211624E+00
             5.6285554836415335E+00    8.1192302605103226E+00    7.3255679692340783E+00
             1.1256107230667359E+01    3.2654535215997269E+00    7.3754170689448610E+00
             9.8475146338372870E+00    8.0198759894140148E-01    7.3219356386228549E+00
             8.4355883406988017E+00    3.2441713617072452E+00    7.3060109305296086E+00
             1.4061007100297083E+01    8.1118995411380261E+00    7.3347324271612226E+00
             1.2660591830815388E+01    5.6884487026318489E+00    7.3367462606170308E+00
             1.1244387756379902E+01    8.1186728991890362E+00    7.3274699479852030E+00
             1.4111284359533125E+00    8.2046307047911871E-01    7.3360472351012112E+00
             4.2124561454760316E+00    5.6875847598515472E+00    7.3353654885305586E+00
             7.0248445850980623E+00    8.0304563423826492E-01    7.3243240394719082E+00
             9.8507771282384748E+00    5.6928159658577906E+00    7.3282718521007908E+00
             2.8126837818618196E+00    1.6070330300411331E+00    9.6827394361815333E+00
             4.2048824416955881E+00    4.0379552084864789E+00    9.6851084732000867E+00
             5.6095840259741374E+00    1.5755693210266628E+00    9.6704885669856129E+00
             6.9965298809680325E+00    3.9708421441104695E+00    9.6213842354724726E+00
             5.6183791053764738E+00    6.4894169912273352E+00    9.6531654732617795E+00
             7.0360367046455234E+00    8.9224094379774730E+00    9.6631636849301632E+00
             8.4371928174449753E+00    6.5205848748145572E+00    9.6247989872624373E+00
             9.8405255083267047E+00    8.9231621925644120E+00    9.6619768795006333E+00
             8.4425940956610717E+00    1.5333422900648515E+00    9.6183028560031936E+00
             9.8763903790540120E+00    3.9797421408902620E+00    9.6166267446942673E+00
             1.1265925208437354E+01    1.5766762943148847E+00    9.6669651211942558E+00
             1.2670092971485298E+01    4.0380263118454893E+00    9.6869281006485100E+00
             1.1257246496122599E+01    6.4911286808738460E+00    9.6543293736006053E+00
             1.2650300550968002E+01    8.9034621392011086E+00    9.6595657899055549E+00
             1.4062507804138887E+01    6.4751347877099796E+00    9.6734210634907285E+00
             1.5474699164916808E+01    8.9009549982965783E+00    9.6572070778876462E+00
             8.4372640014232516E+00    4.0524248889688694E+00    1.1029999279974993E+01
       &END COORD
       &VELOCITY
             0.0000000000000000E+00    0.0000000000000000E+00    0.0000000000000000E+00
             0.0000000000000000E+00    0.0000000000000000E+00    0.0000000000000000E+00
             0.0000000000000000E+00    0.0000000000000000E+00    0.0000000000000000E+00
             0.0000000000000000E+00    0.0000000000000000E+00    0.0000000000000000E+00
             0.0000000000000000E+00    0.0000000000000000E+00    0.0000000000000000E+00
             0.0000000000000000E+00    0.0000000000000000E+00    0.0000000000000000E+00
             0.0000000000000000E+00    0.0000000000000000E+00    0.0000000000000000E+00
             0.0000000000000000E+00    0.0000000000000000E+00    0.0000000000000000E+00
             0.0000000000000000E+00    0.0000000000000000E+00    0.0000000000000000E+00
             0.0000000000000000E+00    0.0000000000000000E+00    0.0000000000000000E+00
             0.0000000000000000E+00    0.0000000000000000E+00    0.0000000000000000E+00
             0.0000000000000000E+00    0.0000000000000000E+00    0.0000000000000000E+00
             0.0000000000000000E+00    0.0000000000000000E+00    0.0000000000000000E+00
             0.0000000000000000E+00    0.0000000000000000E+00    0.0000000000000000E+00
             0.0000000000000000E+00    0.0000000000000000E+00    0.0000000000000000E+00
             0.0000000000000000E+00    0.0000000000000000E+00    0.0000000000000000E+00
             0.0000000000000000E+00    0.0000000000000000E+00    0.0000000000000000E+00
             0.0000000000000000E+00    0.0000000000000000E+00    0.0000000000000000E+00
             0.0000000000000000E+00    0.0000000000000000E+00    0.0000000000000000E+00
             0.0000000000000000E+00    0.0000000000000000E+00    0.0000000000000000E+00
             0.0000000000000000E+00    0.0000000000000000E+00    0.0000000000000000E+00
             0.0000000000000000E+00    0.0000000000000000E+00    0.0000000000000000E+00
             0.0000000000000000E+00    0.0000000000000000E+00    0.0000000000000000E+00
             0.0000000000000000E+00    0.0000000000000000E+00    0.0000000000000000E+00
             0.0000000000000000E+00    0.0000000000000000E+00    0.0000000000000000E+00
             0.0000000000000000E+00    0.0000000000000000E+00    0.0000000000000000E+00
             0.0000000000000000E+00    0.0000000000000000E+00    0.0000000000000000E+00
             0.0000000000000000E+00    0.0000000000000000E+00    0.0000000000000000E+00
             0.0000000000000000E+00    0.0000000000000000E+00    0.0000000000000000E+00
             0.0000000000000000E+00    0.0000000000000000E+00    0.0000000000000000E+00
             0.0000000000000000E+00    0.0000000000000000E+00    0.0000000000000000E+00
             0.0000000000000000E+00    0.0000000000000000E+00    0.0000000000000000E+00
             0.0000000000000000E+00    0.0000000000000000E+00    0.0000000000000000E+00
             0.0000000000000000E+00    0.0000000000000000E+00    0.0000000000000000E+00
             0.0000000000000000E+00    0.0000000000000000E+00    0.0000000000000000E+00
             0.0000000000000000E+00    0.0000000000000000E+00    0.0000000000000000E+00
             0.0000000000000000E+00    0.0000000000000000E+00    0.0000000000000000E+00
             0.0000000000000000E+00    0.0000000000000000E+00    0.0000000000000000E+00
             0.0000000000000000E+00    0.0000000000000000E+00    0.0000000000000000E+00
             0.0000000000000000E+00    0.0000000000000000E+00    0.0000000000000000E+00
             0.0000000000000000E+00    0.0000000000000000E+00    0.0000000000000000E+00
             0.0000000000000000E+00    0.0000000000000000E+00    0.0000000000000000E+00
             0.0000000000000000E+00    0.0000000000000000E+00    0.0000000000000000E+00
             0.0000000000000000E+00    0.0000000000000000E+00    0.0000000000000000E+00
             0.0000000000000000E+00    0.0000000000000000E+00    0.0000000000000000E+00
             0.0000000000000000E+00    0.0000000000000000E+00    0.0000000000000000E+00
             0.0000000000000000E+00    0.0000000000000000E+00    0.0000000000000000E+00
             0.0000000000000000E+00    0.0000000000000000E+00    0.0000000000000000E+00
             0.0000000000000000E+00    0.0000000000000000E+00    0.0000000000000000E+00
       &END VELOCITY
     &END REPLICA
     &REPLICA
       &COORD
             6.9587559968220503E-04    2.6866337060038473E-04    5.0034269776560043E+00
             1.4065425012974155E+00    2.4356210091282708E+00    5.0016054317044532E+00
             2.8126967448037163E+00    4.4721708858929266E-04    5.0042712315520115E+00
             4.2185433705014521E+00    2.4357995628462619E+00    5.0024496856004612E+00
             2.8123891169951500E+00    4.8709733548853098E+00    4.9997838857498964E+00
             4.2182357426928858E+00    7.3063257006429794E+00    4.9979623397983461E+00
             5.6243899961991870E+00    4.8711519086039337E+00    5.0006281396489092E+00
             7.0302366218969183E+00    7.3065042543616041E+00    4.9988065936973554E+00
             5.6246976240077480E+00    6.2577080721378583E-04    5.0051154854510269E+00
             7.0305442497054864E+00    2.4359781165648848E+00    5.0032939394994749E+00
             8.4366984932117877E+00    8.0432452520215643E-04    5.0059597393470368E+00
             9.8425451189095199E+00    2.4361566702828736E+00    5.0041381933954838E+00
             8.4363908654032258E+00    4.8713304623219198E+00    5.0014723935449155E+00
             9.8422374911009509E+00    7.3066828080795938E+00    4.9996508475933652E+00
             1.1248391744607252E+01    4.8715090160405481E+00    5.0023166474439273E+00
             1.2654238360304984E+01    7.3068613617975844E+00    5.0004951014893777E+00
             5.6072259967908948E+00    3.2717694831276312E+00    7.3530827035139925E+00
             4.2099070232922404E+00    8.1719716770811346E-01    7.3328970128199478E+00
             2.8118679605270072E+00    3.2550801963193963E+00    7.3451641778545769E+00
             8.4356068296987061E+00    8.1323676025747353E+00    7.3228170896629603E+00
             7.0143334854165209E+00    5.7016839297504252E+00    7.3331365343212820E+00
             5.6255719060945104E+00    8.1209729387106258E+00    7.3314120659277142E+00
             1.1263618561579202E+01    3.2715360838567120E+00    7.3548522496337476E+00
             9.8405843128203720E+00    7.9371880022345986E-01    7.3359933325112134E+00