 # Version information for this restart file 
 # current date 2022-06-16 11:12:00.510
 # current working dir /work/hpc/users/wnw36/MSU-DFT-Catalysis-School/5_NEB/1_H-Diffusion/Pt/3_NEB/3-node-loose
 # Program compiled at                              Mon May 23 16:32:41 CDT 2022
 # Program compiled on                             Orion-devel-1.HPC.MsState.Edu
 # Program compiled for                                  Linux-x86-64-intel-hpc2
 # Source code revision number                                       git:d8d7100
 &GLOBAL
   PRINT_LEVEL  MEDIUM
   PROJECT_NAME Pt111-H-r-0
   OUTPUT_FILE_NAME Pt111-H-r-0.out
   RUN_TYPE  BAND
 &END GLOBAL
 &MOTION
   &GEO_OPT
     TYPE  MINIMIZATION
     OPTIMIZER  LBFGS
     MAX_ITER  20000
     MAX_DR     3.0000000000000001E-03
     MAX_FORCE     3.0000000000000001E-03
     RMS_DR     3.0000000000000001E-03
     RMS_FORCE     3.0000000000000001E-03
   &END GEO_OPT
   &CONSTRAINT
     &FIXED_ATOMS
       COMPONENTS_TO_FIX  XYZ
       LIST  1..16
     &END FIXED_ATOMS
   &END CONSTRAINT
   &BAND
     NPROC_REP  24
     BAND_TYPE  CI-NEB
     NUMBER_OF_REPLICA  5
     ROTATE_FRAMES  T
     ALIGN_FRAMES  T
     K_SPRING     5.0000000000000003E-02
     &CONVERGENCE_CONTROL
       MAX_DR     3.0000000000000001E-03
       MAX_FORCE     3.0000000000000001E-03
       RMS_DR     3.0000000000000001E-03
       RMS_FORCE     3.0000000000000001E-03
     &END CONVERGENCE_CONTROL
     &CI_NEB
       NSTEPS_IT  5
     &END CI_NEB
     &OPTIMIZE_BAND
       OPT_TYPE  DIIS
       OPTIMIZE_END_POINTS  F
       &DIIS
         MAX_STEPS  400
       &END DIIS
     &END OPTIMIZE_BAND
     &REPLICA
       &COORD
             0.0000000000000000E+00    0.0000000000000000E+00    4.9999999999999947E+00
             1.4060005199999979E+00    2.4352643299999959E+00    4.9999999999999947E+00
             2.8120010299999949E+00    0.0000000000000000E+00    4.9999999999999947E+00
             4.2180015499999941E+00    2.4352643299999959E+00    4.9999999999999947E+00
             2.8120010299999949E+00    4.8705286599999917E+00    4.9999999999999947E+00
             4.2180015499999941E+00    7.3057929899999872E+00    4.9999999999999947E+00
             5.6240020699999915E+00    4.8705286599999917E+00    4.9999999999999947E+00
             7.0300025899999898E+00    7.3057929899999872E+00    4.9999999999999947E+00
             5.6240020699999915E+00    0.0000000000000000E+00    4.9999999999999947E+00
             7.0300025899999898E+00    2.4352643299999959E+00    4.9999999999999947E+00
             8.4360030999999882E+00    0.0000000000000000E+00    4.9999999999999947E+00
             9.8420036199999892E+00    2.4352643299999959E+00    4.9999999999999947E+00
             8.4360030999999882E+00    4.8705286599999917E+00    4.9999999999999947E+00
             9.8420036199999892E+00    7.3057929899999872E+00    4.9999999999999947E+00
             1.1248004139999983E+01    4.8705286599999917E+00    4.9999999999999947E+00
             1.2654004649999974E+01    7.3057929899999872E+00    4.9999999999999947E+00
             5.6281983420999930E+00    3.2464920362999958E+00    7.3476670491999885E+00
             4.2177519128999919E+00    8.0906660509999850E-01    7.3388271550999855E+00
             2.8115813754999950E+00    3.2431229140999958E+00    7.3390899319999905E+00
             8.4383127072999855E+00    8.1100051174999859E+00    7.3485278411999877E+00
             7.0313024671999891E+00    5.6807074856999913E+00    7.3342761955999878E+00
             5.6256875603999905E+00    8.1170656229999896E+00    7.3284974067999880E+00
             1.1244092541499978E+01    3.2492962220999937E+00    7.3497396963999906E+00
             9.8441753518999882E+00    8.1050535059999873E-01    7.3298785969999889E+00
             8.4367948644999871E+00    3.2458865126999936E+00    7.3344655589999901E+00
             1.4059144836699980E+01    8.1156173551999871E+00    7.3350746110999880E+00
             1.2651388289099977E+01    5.6795288990999921E+00    7.3333385960999884E+00
             1.1245765709299981E+01    8.1151031915999852E+00    7.3320493632999932E+00
             1.4085966507999983E+00    8.1105489669999886E-01    7.3385163337999888E+00
             4.2176394248999927E+00    5.6788201344999933E+00    7.3300560268999906E+00
             7.0265425282999905E+00    8.1008863979999868E-01    7.3298715628999895E+00
             9.8432229313999784E+00    5.6811367466999902E+00    7.3375642532999885E+00
             2.8141101641999962E+00    1.6231619739999978E+00    9.6830195305999833E+00
             4.2137393057999937E+00    4.0535018267999927E+00    9.6795326544999867E+00
             5.6218605913999902E+00    1.6164120408999980E+00    9.6816297427999860E+00
             7.0106847051999903E+00    4.0426127395999929E+00    9.6725158924999874E+00
             5.6072032600999897E+00    6.5000250781999922E+00    9.6553417114999824E+00
             7.0287033787999897E+00    8.9328160229999867E+00    9.6760358876999852E+00
             8.4371558373999882E+00    6.5151178116999917E+00    9.6738468141999867E+00
             9.8453648659999864E+00    8.9313823300999857E+00    9.6822264767999897E+00
             8.4392163307999866E+00    1.6005231015999974E+00    9.6558151494999827E+00
             9.8655493866999890E+00    4.0419780523999949E+00    9.6738027182999851E+00
             1.1253693343299984E+01    1.6169306255999976E+00    9.6799049935999815E+00
             1.2660722819399981E+01    4.0547127658999926E+00    9.6834658534999836E+00
             1.1265323640799982E+01    6.4982573043999894E+00    9.6635116204999800E+00
             1.2653740567399980E+01    8.9264121626999842E+00    9.6669927701999878E+00
             1.4058504176799977E+01    6.4912117325999921E+00    9.6681041739999873E+00
             1.5467863764999981E+01    8.9272540932999807E+00    9.6660663735999872E+00
             8.4309321374999886E+00    4.8666014940999940E+00    1.0634407879399982E+01
       &END COORD
       &VELOCITY
             0.0000000000000000E+00    0.0000000000000000E+00    0.0000000000000000E+00
             0.0000000000000000E+00    0.0000000000000000E+00    0.0000000000000000E+00
             0.0000000000000000E+00    0.0000000000000000E+00    0.0000000000000000E+00
             0.0000000000000000E+00    0.0000000000000000E+00    0.0000000000000000E+00
             0.0000000000000000E+00    0.0000000000000000E+00    0.0000000000000000E+00
             0.0000000000000000E+00    0.0000000000000000E+00    0.0000000000000000E+00
             0.0000000000000000E+00    0.0000000000000000E+00    0.0000000000000000E+00
             0.0000000000000000E+00    0.0000000000000000E+00    0.0000000000000000E+00
             0.0000000000000000E+00    0.0000000000000000E+00    0.0000000000000000E+00
             0.0000000000000000E+00    0.0000000000000000E+00    0.0000000000000000E+00
             0.0000000000000000E+00    0.0000000000000000E+00    0.0000000000000000E+00
             0.0000000000000000E+00    0.0000000000000000E+00    0.0000000000000000E+00
             0.0000000000000000E+00    0.0000000000000000E+00    0.0000000000000000E+00
             0.0000000000000000E+00    0.0000000000000000E+00    0.0000000000000000E+00
             0.0000000000000000E+00    0.0000000000000000E+00    0.0000000000000000E+00
             0.0000000000000000E+00    0.0000000000000000E+00    0.0000000000000000E+00
             0.0000000000000000E+00    0.0000000000000000E+00    0.0000000000000000E+00
             0.0000000000000000E+00    0.0000000000000000E+00    0.0000000000000000E+00
             0.0000000000000000E+00    0.0000000000000000E+00    0.0000000000000000E+00
             0.0000000000000000E+00    0.0000000000000000E+00    0.0000000000000000E+00
             0.0000000000000000E+00    0.0000000000000000E+00    0.0000000000000000E+00
             0.0000000000000000E+00    0.0000000000000000E+00    0.0000000000000000E+00
             0.0000000000000000E+00    0.0000000000000000E+00    0.0000000000000000E+00
             0.0000000000000000E+00    0.0000000000000000E+00    0.0000000000000000E+00
             0.0000000000000000E+00    0.0000000000000000E+00    0.0000000000000000E+00
             0.0000000000000000E+00    0.0000000000000000E+00    0.0000000000000000E+00
             0.0000000000000000E+00    0.0000000000000000E+00    0.0000000000000000E+00
             0.0000000000000000E+00    0.0000000000000000E+00    0.0000000000000000E+00
             0.0000000000000000E+00    0.0000000000000000E+00    0.0000000000000000E+00
             0.0000000000000000E+00    0.0000000000000000E+00    0.0000000000000000E+00
             0.0000000000000000E+00    0.0000000000000000E+00    0.0000000000000000E+00
             0.0000000000000000E+00    0.0000000000000000E+00    0.0000000000000000E+00
             0.0000000000000000E+00    0.0000000000000000E+00    0.0000000000000000E+00
             0.0000000000000000E+00    0.0000000000000000E+00    0.0000000000000000E+00
             0.0000000000000000E+00    0.0000000000000000E+00    0.0000000000000000E+00
             0.0000000000000000E+00    0.0000000000000000E+00    0.0000000000000000E+00
             0.0000000000000000E+00    0.0000000000000000E+00    0.0000000000000000E+00
             0.0000000000000000E+00    0.0000000000000000E+00    0.0000000000000000E+00
             0.0000000000000000E+00    0.0000000000000000E+00    0.0000000000000000E+00
             0.0000000000000000E+00    0.0000000000000000E+00    0.0000000000000000E+00
             0.0000000000000000E+00    0.0000000000000000E+00    0.0000000000000000E+00
             0.0000000000000000E+00    0.0000000000000000E+00    0.0000000000000000E+00
             0.0000000000000000E+00    0.0000000000000000E+00    0.0000000000000000E+00
             0.0000000000000000E+00    0.0000000000000000E+00    0.0000000000000000E+00
             0.0000000000000000E+00    0.0000000000000000E+00    0.0000000000000000E+00
             0.0000000000000000E+00    0.0000000000000000E+00    0.0000000000000000E+00
             0.0000000000000000E+00    0.0000000000000000E+00    0.0000000000000000E+00
             0.0000000000000000E+00    0.0000000000000000E+00    0.0000000000000000E+00
             0.0000000000000000E+00    0.0000000000000000E+00    0.0000000000000000E+00
       &END VELOCITY
     &END REPLICA
     &REPLICA
       &COORD
             7.9621375763435623E-04    3.0740188611603136E-04    5.0039211128512795E+00
             1.4066206494679385E+00    2.4356724386175732E+00    5.0018369185679239E+00
             2.8127970597765315E+00    5.1170122755591317E-04    5.0048870995409196E+00
             4.2186214954868371E+00    2.4358767379590192E+00    5.0028029052575631E+00
             2.8124450751782475E+00    4.8710374753483130E+00    4.9997527242811346E+00
             4.2182695108885548E+00    7.3064025120797726E+00    4.9976685299977746E+00
             5.6244459311971475E+00    4.8712417746904810E+00    5.0007187109742048E+00
             7.0302703669074562E+00    7.3066068114219354E+00    4.9986345166908484E+00
             5.6247979157954324E+00    7.1600056972215959E-04    5.0058530862339961E+00
             7.0306223515057447E+00    2.4360810373011819E+00    5.0037688919506378E+00
             8.4367987618143339E+00    9.2029991116191932E-04    5.0068190729236282E+00
             9.8426231975246363E+00    2.4362853366426243E+00    5.0047348786402734E+00
             8.4364467772160516E+00    4.8714460740319181E+00    5.0016846976638405E+00
             9.8422712129263452E+00    7.3068111107633706E+00    4.9996005033804849E+00
             1.1248447633234937E+01    4.8716503733740861E+00    5.0026506843569098E+00
             1.2654272058945246E+01    7.3070154101048184E+00    5.0005664900701214E+00
             5.6123735076664145E+00    3.2304258114718301E+00    7.3678549563657576E+00
             4.2063438788439917E+00    7.9538672650405939E-01    7.3543113188353573E+00
             2.8109919797165213E+00    3.2335312368393541E+00    7.3526773855805736E+00
             8.4346903907225670E+00    8.0741157730815836E+00    7.3695596223900770E+00
             7.0207463664980514E+00    5.6635205311984578E+00    7.3142340232441949E+00
             5.6325186878006539E+00    8.1011164149930828E+00    7.3276682047255273E+00
             1.1259870306745764E+01    3.2309915400480218E+00    7.3682708117946643E+00
             9.8570727659334825E+00    7.9070790716264872E-01    7.3254168686716286E+00
             8.4343164998403193E+00    3.2186144479407317E+00    7.2967967856519707E+00
             1.4061487113807949E+01    8.1020756575991140E+00    7.3281576068295049E+00
             1.2657640248884194E+01    5.6677013587124785E+00    7.3278090515616174E+00
             1.1238061124568731E+01    8.1009356840256821E+00    7.3294738369109984E+00
             1.4167410390507953E+00    7.9677507286644123E-01    7.3565166008909095E+00
             4.2133659930014389E+00    5.6701499939983080E+00    7.3259424218386524E+00
             7.0155252272117332E+00    7.8697275110665288E-01    7.3236103153042604E+00
             9.8495122537502944E+00    5.6651803545590136E+00    7.3141842330103879E+00
             2.8128096313707278E+00    1.5529381538723834E+00    9.7120541824111566E+00
             4.1922819526072903E+00    3.9828420353987379E+00    9.6804624232330951E+00
             5.5993835413156408E+00    1.5132374930341614E+00    9.6932576048489647E+00
             6.9620433501169474E+00    3.9053450635391727E+00    9.5682773677132360E+00
             5.6012117371173158E+00    6.4389836830016067E+00    9.6330892971831545E+00
             7.0316236210556280E+00    8.8768091768371331E+00    9.6810750288004890E+00
             8.4377129031930025E+00    6.4556529586967510E+00    9.6261480423756236E+00
             9.8426289384092129E+00    8.8795405202572191E+00    9.6796032773905960E+00
             8.4362052038884183E+00    1.4792973503985425E+00    9.6115812658152127E+00
             9.9097732426553833E+00    3.9069216587821463E+00    9.5722674318358383E+00
             1.1272278499159775E+01    1.5143043025410516E+00    9.6953320581488871E+00
             1.2680566841614851E+01    3.9829148020895571E+00    9.6795272647497423E+00
             1.1270577787270618E+01    6.4392466745366637E+00    9.6327580392585297E+00
             1.2651455983454969E+01    8.8496280836605159E+00    9.6566508131165385E+00
             1.4060940060708838E+01    6.4353068151326793E+00    9.6605668602734536E+00
             1.5470961691195495E+01    8.8504282300586077E+00    9.6556798043817373E+00
             8.4375117532090513E+00    4.5335826150964103E+00    1.0853605485123259E+01
       &END COORD
       &VELOCITY
             0.0000000000000000E+00    0.0000000000000000E+00    0.0000000000000000E+00
             0.0000000000000000E+00    0.0000000000000000E+00    0.0000000000000000E+00
             0.0000000000000000E+00    0.0000000000000000E+00    0.0000000000000000E+00
             0.0000000000000000E+00    0.0000000000000000E+00    0.0000000000000000E+00
             0.0000000000000000E+00    0.0000000000000000E+00    0.0000000000000000E+00
             0.0000000000000000E+00    0.0000000000000000E+00    0.0000000000000000E+00
             0.0000000000000000E+00    0.0000000000000000E+00    0.0000000000000000E+00
             0.0000000000000000E+00    0.0000000000000000E+00    0.0000000000000000E+00
             0.0000000000000000E+00    0.0000000000000000E+00    0.0000000000000000E+00
             0.0000000000000000E+00    0.0000000000000000E+00    0.0000000000000000E+00
             0.0000000000000000E+00    0.0000000000000000E+00    0.0000000000000000E+00
             0.0000000000000000E+00    0.0000000000000000E+00    0.0000000000000000E+00
             0.0000000000000000E+00    0.0000000000000000E+00    0.0000000000000000E+00
             0.0000000000000000E+00    0.0000000000000000E+00    0.0000000000000000E+00
             0.0000000000000000E+00    0.0000000000000000E+00    0.0000000000000000E+00
             0.0000000000000000E+00    0.0000000000000000E+00    0.0000000000000000E+00
             0.0000000000000000E+00    0.0000000000000000E+00    0.0000000000000000E+00
             0.0000000000000000E+00    0.0000000000000000E+00    0.0000000000000000E+00
             0.0000000000000000E+00    0.0000000000000000E+00    0.0000000000000000E+00
             0.0000000000000000E+00    0.0000000000000000E+00    0.0000000000000000E+00
             0.0000000000000000E+00    0.0000000000000000E+00    0.0000000000000000E+00
             0.0000000000000000E+00    0.0000000000000000E+00    0.0000000000000000E+00
             0.0000000000000000E+00    0.0000000000000000E+00    0.0000000000000000E+00
             0.0000000000000000E+00    0.0000000000000000E+00    0.0000000000000000E+00
             0.0000000000000000E+00    0.0000000000000000E+00    0.0000000000000000E+00
             0.0000000000000000E+00    0.0000000000000000E+00    0.0000000000000000E+00
             0.0000000000000000E+00    0.0000000000000000E+00    0.0000000000000000E+00
             0.0000000000000000E+00    0.0000000000000000E+00    0.0000000000000000E+00
             0.0000000000000000E+00    0.0000000000000000E+00    0.0000000000000000E+00
             0.0000000000000000E+00    0.0000000000000000E+00    0.0000000000000000E+00
             0.0000000000000000E+00    0.0000000000000000E+00    0.0000000000000000E+00
             0.0000000000000000E+00    0.0000000000000000E+00    0.0000000000000000E+00
             0.0000000000000000E+00    0.0000000000000000E+00    0.0000000000000000E+00
             0.0000000000000000E+00    0.0000000000000000E+00    0.0000000000000000E+00
             0.0000000000000000E+00    0.0000000000000000E+00    0.0000000000000000E+00
             0.0000000000000000E+00    0.0000000000000000E+00    0.0000000000000000E+00
             0.0000000000000000E+00    0.0000000000000000E+00    0.0000000000000000E+00
             0.0000000000000000E+00    0.0000000000000000E+00    0.0000000000000000E+00
             0.0000000000000000E+00    0.0000000000000000E+00    0.0000000000000000E+00
             0.0000000000000000E+00    0.0000000000000000E+00    0.0000000000000000E+00
             0.0000000000000000E+00    0.0000000000000000E+00    0.0000000000000000E+00
             0.0000000000000000E+00    0.0000000000000000E+00    0.0000000000000000E+00
             0.0000000000000000E+00    0.0000000000000000E+00    0.0000000000000000E+00
             0.0000000000000000E+00    0.0000000000000000E+00    0.0000000000000000E+00
             0.0000000000000000E+00    0.0000000000000000E+00    0.0000000000000000E+00
             0.0000000000000000E+00    0.0000000000000000E+00    0.0000000000000000E+00
             0.0000000000000000E+00    0.0000000000000000E+00    0.0000000000000000E+00
             0.0000000000000000E+00    0.0000000000000000E+00    0.0000000000000000E+00
             0.0000000000000000E+00    0.0000000000000000E+00    0.0000000000000000E+00
       &END VELOCITY
     &END REPLICA
     &REPLICA
       &COORD
             5.4240444168140002E-04    2.0941128787541896E-04    5.0026711784448361E+00
             1.4064229705977227E+00    2.4355423457021126E+00    5.0012513634444238E+00
             2.8125433091082921E+00    3.4858606244743130E-04    5.0033292372463087E+00
             4.2184238752643362E+00    2.4356815204766855E+00    5.0019094222458982E+00
             2.8123035267537642E+00    4.8708752801158584E+00    4.9998315484416747E+00
             4.2181840929098051E+00    7.3062082145300939E+00    4.9984117334412632E+00
             5.6243044414203780E+00    4.8710144548909229E+00    5.0004896072454894E+00
             7.0301850075764163E+00    7.3063473893051611E+00    4.9990697922450744E+00
             5.6245442237749046E+00    4.8776083751461485E-04    5.0039872960501270E+00
             7.0304247899309473E+00    2.4358206952517527E+00    5.0025674810497165E+00
             8.4365451284415158E+00    6.2693561208627057E-04    5.0046453548516023E+00
             9.8424256945975568E+00    2.4359598700263239E+00    5.0032255398511900E+00
             8.4363053460869910E+00    4.8711536296654954E+00    5.0011476660469611E+00
             9.8421859122430284E+00    7.3064865640797327E+00    4.9997278510465515E+00
             1.1248306260753598E+01    4.8712928044405626E+00    5.0018057248507795E+00
             1.2654186816909634E+01    7.3066257388543052E+00    5.0003859098480259E+00
             5.6175602311906143E+00    3.2668724591398366E+00    7.3730034382572773E+00
             4.2139535126566914E+00    8.2372000543541968E-01    7.3346061323773055E+00
             2.8122291822807735E+00    3.2579035244391772E+00    7.3479253001875042E+00
             8.4373067631503389E+00    8.1264755798820651E+00    7.3275850536173222E+00
             7.0204834367929294E+00    5.6938577789804246E+00    7.3313250756096702E+00
             5.6299260533370292E+00    8.1192003404094599E+00    7.3262669027250302E+00
             1.1257005627224567E+01    3.2669954798541903E+00    7.3721314898726007E+00
             9.8477733583513558E+00    8.0163975941002774E-01    7.3187063618395110E+00
             8.4348176606120191E+00    3.2457323649302769E+00    7.3053374506639681E+00
             1.4060631199300527E+01    8.1122349157875639E+00    7.3350139762571205E+00
             1.2661584242389868E+01    5.6867420317274293E+00    7.3366785036073772E+00
             1.1243442089189166E+01    8.1202991416727048E+00    7.3270694838779997E+00
             1.4111507474532263E+00    8.2040710818864448E-01    7.3367416064626472E+00
             4.2127805565262362E+00    5.6868140982890854E+00    7.3350280807276258E+00
             7.0233663013253675E+00    8.0244572184632401E-01    7.3238348517495346E+00
             9.8504029169886973E+00    5.6927240690392136E+00    7.3270661327646147E+00
             2.8119623487440362E+00    1.6073536382085978E+00    9.6832401747695336E+00
             4.2035749760115433E+00    4.0399342921396828E+00    9.6850619952861177E+00
             5.6100386414709895E+00    1.5745384685455990E+00    9.6699031787244110E+00
             7.0055987918380440E+00    3.9709598126114924E+00    9.6291892159687862E+00
             5.6196865287413438E+00    6.4911026257723528E+00    9.6538166121087201E+00
             7.0360630730260665E+00    8.9234158427496535E+00    9.6630918124800029E+00
             8.4369661324629259E+00    6.5198612361061050E+00    9.6256494273597522E+00
             9.8412102136464412E+00    8.9228144284004731E+00    9.6630536343088078E+00
             8.4423711666985142E+00    1.5363949537929840E+00    9.6170336398029335E+00
             9.8633096839244558E+00    3.9827707735943521E+00    9.6256905817235214E+00
             1.1268106266614186E+01    1.5762868886571406E+00    9.6674000818888928E+00
             1.2672191538619980E+01    4.0391132254100190E+00    9.6873790806905422E+00
             1.1258379003865157E+01    6.4919444111566076E+00    9.6543209631486331E+00
             1.2649322003561089E+01    8.9041295326188639E+00    9.6588900704035723E+00
             1.4062804451081815E+01    6.4766950389034230E+00    9.6733572600576299E+00
             1.5475687858741246E+01    8.8994710886416311E+00    9.6582635096853551E+00
             8.4395831335792906E+00    4.0539583975661619E+00    1.1013033467771962E+01
       &END COORD
       &VELOCITY
             0.0000000000000000E+00    0.0000000000000000E+00    0.0000000000000000E+00
             0.0000000000000000E+00    0.0000000000000000E+00    0.0000000000000000E+00
             0.0000000000000000E+00    0.0000000000000000E+00    0.0000000000000000E+00
             0.0000000000000000E+00    0.0000000000000000E+00    0.0000000000000000E+00
             0.0000000000000000E+00    0.0000000000000000E+00    0.0000000000000000E+00
             0.0000000000000000E+00    0.0000000000000000E+00    0.0000000000000000E+00
             0.0000000000000000E+00    0.0000000000000000E+00    0.0000000000000000E+00
             0.0000000000000000E+00    0.0000000000000000E+00    0.0000000000000000E+00
             0.0000000000000000E+00    0.0000000000000000E+00    0.0000000000000000E+00
             0.0000000000000000E+00    0.0000000000000000E+00    0.0000000000000000E+00
             0.0000000000000000E+00    0.0000000000000000E+00    0.0000000000000000E+00
             0.0000000000000000E+00    0.0000000000000000E+00    0.0000000000000000E+00
             0.0000000000000000E+00    0.0000000000000000E+00    0.0000000000000000E+00
             0.0000000000000000E+00    0.0000000000000000E+00    0.0000000000000000E+00
             0.0000000000000000E+00    0.0000000000000000E+00    0.0000000000000000E+00
             0.0000000000000000E+00    0.0000000000000000E+00    0.0000000000000000E+00
             0.0000000000000000E+00    0.0000000000000000E+00    0.0000000000000000E+00
             0.0000000000000000E+00    0.0000000000000000E+00    0.0000000000000000E+00
             0.0000000000000000E+00    0.0000000000000000E+00    0.0000000000000000E+00
             0.0000000000000000E+00    0.0000000000000000E+00    0.0000000000000000E+00
             0.0000000000000000E+00    0.0000000000000000E+00    0.0000000000000000E+00
             0.0000000000000000E+00    0.0000000000000000E+00    0.0000000000000000E+00
             0.0000000000000000E+00    0.0000000000000000E+00    0.0000000000000000E+00
             0.0000000000000000E+00    0.0000000000000000E+00    0.0000000000000000E+00
             0.0000000000000000E+00    0.0000000000000000E+00    0.0000000000000000E+00
             0.0000000000000000E+00    0.0000000000000000E+00    0.0000000000000000E+00
             0.0000000000000000E+00    0.0000000000000000E+00    0.0000000000000000E+00
             0.0000000000000000E+00    0.0000000000000000E+00    0.0000000000000000E+00
             0.0000000000000000E+00    0.0000000000000000E+00    0.0000000000000000E+00
             0.0000000000000000E+00    0.0000000000000000E+00    0.0000000000000000E+00
             0.0000000000000000E+00    0.0000000000000000E+00    0.0000000000000000E+00
             0.0000000000000000E+00    0.0000000000000000E+00    0.0000000000000000E+00
             0.0000000000000000E+00    0.0000000000000000E+00    0.0000000000000000E+00
             0.0000000000000000E+00    0.0000000000000000E+00    0.0000000000000000E+00
             0.0000000000000000E+00    0.0000000000000000E+00    0.0000000000000000E+00
             0.0000000000000000E+00    0.0000000000000000E+00    0.0000000000000000E+00
             0.0000000000000000E+00    0.0000000000000000E+00    0.0000000000000000E+00
             0.0000000000000000E+00    0.0000000000000000E+00    0.0000000000000000E+00
             0.0000000000000000E+00    0.0000000000000000E+00    0.0000000000000000E+00
             0.0000000000000000E+00    0.0000000000000000E+00    0.0000000000000000E+00
             0.0000000000000000E+00    0.0000000000000000E+00    0.0000000000000000E+00
             0.0000000000000000E+00    0.0000000000000000E+00    0.0000000000000000E+00
             0.0000000000000000E+00    0.0000000000000000E+00    0.0000000000000000E+00
             0.0000000000000000E+00    0.0000000000000000E+00    0.0000000000000000E+00
             0.0000000000000000E+00    0.0000000000000000E+00    0.0000000000000000E+00
             0.0000000000000000E+00    0.0000000000000000E+00    0.0000000000000000E+00
             0.0000000000000000E+00    0.0000000000000000E+00    0.0000000000000000E+00
             0.0000000000000000E+00    0.0000000000000000E+00    0.0000000000000000E+00
             0.0000000000000000E+00    0.0000000000000000E+00    0.0000000000000000E+00
       &END VELOCITY
     &END REPLICA
     &REPLICA
       &COORD
             6.9197661293617780E-04    2.6715805137145844E-04    5.0034077763210734E+00
             1.4065394645795077E+00    2.4356190106572875E+00    5.0015964364803924E+00
             2.8126928467179093E+00    4.4471133396614264E-04    5.0042472998676439E+00
             4.2185403346844828E+00    2.4357965639398844E+00    5.0024359600269639E+00
             2.8123869425460803E+00    4.8709708632625768E+00    4.9997850966367237E+00
             4.2182344305126538E+00    7.3063227158684922E+00    4.9979737567960427E+00
             5.6243878226510553E+00    4.8711484165458030E+00    5.0006246201862830E+00
             7.0302353106176261E+00    7.3065002691517194E+00    4.9988132803455994E+00
             5.6246937268228798E+00    6.2226461719285431E-04    5.0050868234172059E+00
             7.0305412147894559E+00    2.4359741172231093E+00    5.0032754835765241E+00
             8.4366945969278593E+00    7.9981789978698708E-04    5.0059263469637791E+00
             9.8425420848944292E+00    2.4361516705057045E+00    5.0041150071230964E+00
             8.4363886927560330E+00    4.8713259698283942E+00    5.0014641437328526E+00
             9.8422361807225958E+00    7.3066778224343141E+00    4.9996528038921726E+00
             1.1248389572861001E+01    4.8715035231116248E+00    5.0023036672824110E+00
             1.2654237050827568E+01    7.3068553757169106E+00    5.0004923274387485E+00
             5.6066622609875774E+00    3.2707939040045519E+00    7.3523146861098416E+00
             4.2109282815477904E+00    8.1790208658441577E-01    7.3323950177450907E+00
             2.8132393713324473E+00    3.2551422475182505E+00    7.3443761769085185E+00
             8.4350469399720858E+00    8.1331627796909114E+00    7.3207122017416859E+00
             7.0148959339771180E+00    5.7014538697488435E+00    7.3322802777809288E+00
             5.6241601041734848E+00    8.1204090999201011E+00    7.3326766576313123E+00
             1.1263892392955064E+01    3.2690958416816049E+00    7.3539703043213738E+00
             9.8397413231538131E+00    7.9385401729102734E-01    7.3372797329711128E+00